001_0002 van der waals
001_0004 l cuin abbr
001_0006 moo motho a fumanang kuno
001_0008 moahi wa naha ya afrika
001_0009 baheno
001_0010 le o mong o na
001_0011 president george
001_0021 proffesor
001_0023 court ha e le traste
001_0026 motho ya tshwereng thaetlele kapa
001_0030 fact date august
001_0036 empire
001_0039 mesebetsi e itseng ka ho
001_0040 o okina ahu
001_0041 hore ho na le tshebetso
001_0042 american male singers
001_0043 modern orthodox judaism
001_0044 ntshetsopele ya dipeo tsa oli
001_0045 laesense ya boditjhaba ya ho
001_0046 red blood cells
001_0047 recreation
001_0048 maseru
001_0049 ya saense ya lekgotleng la
001_0050 moahong wa lekgotla la naha
001_0052 history
001_0055 ya mobu bakeng sa ntshetsopele
001_0059 bridgeport
001_0060 states environmental protection
001_0061 international atomic energy
001_0064 provenseng kang ho tla ba
001_0069 ding le tse ding tse
001_0075 kapa mokga ofe kapa ofe
001_0078 hospital
001_0079 fiction television series
001_0084 royal albert hall
001_0086 la boemo bo hodimo la
001_0091 complaints
001_0095 kapa dife tse amanang le
001_0096 ka nngwe e na le
001_0105 tjhelete ya hae e kenang
001_0106 lefapheng la kgwebo le indasteri
001_0107 naha ya afrika borwa ba
001_0108 nelson mandela le thabo mbeki
001_0109 ho se ho kenwe ho
001_0113 strategic air command
001_0115 basebeletsi ba hao le dijothollo
001_0122 hartbeespoort
001_0123 lokile pele o etsa kopo
001_0125 re kopa hore o ele
001_0127 tlwaelo e ke ke ya
001_0128 butlebutle ka mokgwa o ke
001_0130 american jewish people
001_0137 org wiki wikipedia
001_0138 ho sireletsa le ho matlafatsa
001_0139 following world war
001_0141 kgahlanong le dikgoka ho basadi
001_0146 e nang le share capital
001_0147 tse ka hodimo tsa mobu
001_0150 john
001_0151 average family size
001_0153 sepolesa sa aforikaborwa e lefe
001_0154 original game boy
001_0155 internet protocol suite
001_0159 new york yankees
001_0164 european economic area
001_0165 ho kenngwa tshebetsong ha melao
001_0175 senqu
001_0176 military coup
001_0177 junior high school
001_0178 environmental protection agency
001_0181 madison square garden
001_0185 award winning authors
001_0190 russian civil war
001_0196 national hockey league
001_0198 ho fanwa ka sona ka
001_0199 strong nuclear force
001_0201 ho etsa kopo ya taelo
001_0203 lekgotleng la dinyewe ho tla
001_0205 free methodist church
001_0206 golden globe winners
001_0209 ho na le mefuta e
001_0210 batho
001_0216 centrally planned economy
001_0218 human development index
001_0221 law enforcement agencies
001_0223 bilateral immunity agreement
001_0224 motho ka mong o tlamehile
001_0225 ka bonyane dipuo tse tsheletseng
001_0226 tla tshwarwa ka mokgwa o
001_0227 ke ke wa kgona ho
001_0228 nuclear test ban
001_0232 di tswela pele ho sa
001_0233 holy hand grenade
001_0243 e na le boikarabelo ba
001_0245 randburg
001_0248 valhalla
001_0254 foreign direct investment
001_0263 e mabapi le maemo a
001_0265 good
001_0269 mme re tshepa hore moya
001_0270 kontane kapa ka tjheke e
001_0274 church turing thesis
001_0275 french west africa
001_0276 mabapi le tlhahiso ya koro
001_0278 dipuo tsa afrika borwa tsa
001_0282 kgone ho tswela pele ka
001_0300 mme hona ho tla ya
001_0302 afrika borwa ha kopo e
001_0304 e fumaneha ka potlako weposaeteng
001_0306 le reng limited le tla
001_0308 le hore se sebetsa jwang
001_0310 common law jurisdictions
001_0313 north germanic languages
001_0314 le ho tempuwa ke mosebeletsi
001_0317 ka morero wa ho matlafatsa
001_0319 miller's
001_0320 sa witblits se neng se
001_0323 magnetic resonance imaging
001_0328 armoured fighting vehicles
001_0330 screen actors guild
001_0335 be bonolo ho palama baesekele
001_0336 leng le le leng kapa
001_0338 tswela pele ho sebetsa le
001_0343 national football team
001_0351 power parity comparisons
001_0353 ho ntsha raporoto ya radiology
001_0354 golden globe film
001_0355 primitive recursive functions
001_0357 sehlopheng sa rona sa tshebetso
001_0358 randfontein
001_0362 kofi
001_0364 tlhahiso e tswetseng pele ya
001_0366 big bang model
001_0369 baahi ba afrika borwa kapa
001_0372 poids et mesures
001_0374 phepelo ya dijo tsa polasing
001_0375 system
001_0378 convention
001_0379 e tlang tse mabapi le
001_0381 bill
001_0383 buddhism
001_0385 kapa hofe ho ka bang
001_0388 a diphoofolo tsa afrika borwa
001_0390 la dibokonyana tsena tse salang
001_0391 potter's
001_0394 man
001_0396 ba ngodise ho south african
001_0399 cathode ray tube
001_0401 manejara wa lebatowa a ananela
001_0405 e tswang ho registrar of
001_0406 october
001_0410 monroe
001_0411 grammatical
001_0413 ho lefa molato wa hao
001_0414 chancellorsville
001_0415 baka mathata temong ya dijothollo
001_0418 articles including recorded
001_0422 gibbon
001_0425 tlhokeho ya mosebetsi wa ho
001_0426 ho hlokeha lengolo la tumello
001_0428 formal diplomatic relations
001_0429 o motsho le o mosweu
001_0430 moo ho ipehilweng ka tsela
001_0433 numeric character references
001_0435 midrand
001_0438 e sebetswa letsatsing leo e
001_0443 mang ya ka etsang kopo
001_0445 poone le dinawa tsa soya
001_0446 bafta winners people
001_0454 united states geological
001_0456 san francisco giants
001_0458 supreme court ruled
001_0474 bona ba na le tokelo
001_0481 a ka nna a baka
001_0483 high seas fleet
001_0485 saint john river
001_0486 television shows set
001_0487 great lakes region
001_0488 motor vehicle manufacturers
001_0489 seng feela ke ba buang
001_0490 early church fathers
001_0495 palestine liberation organization
001_0496 nfc championship game
001_0497 re tsebang ho sebetsa re
001_0503 united states district
001_0505 liberal arts college
001_0514 ho ngodisa jwalo ka setsebi
001_0518 science fiction hall
001_0519 thibelang lefu ka mora ketsahalo
002_0001 roodepoort
002_0002 black sea coast
002_0003 sebediswang wa ho phethola mobu
002_0007 knights grand cross
002_0012 ice hockey team
002_0013 republican party united
002_0015 tlosa pompo pele ba ilo
002_0021 islamic conference oic
002_0025 ludwig von mises
002_0028 ya south african revenue service
002_0033 rephaboliki
002_0036 atlantic treaty organization
002_0037 states unemployment rate
002_0039 billy
002_0053 security assistance force
002_0060 union member states
002_0062 northern
002_0063 music awards winners
002_0064 tlhekelo
002_0067 sexually transmitted diseases
002_0069 hang ha ho se ho
002_0073 video game developers
002_0074 make extensive use
002_0075 positive real numbers
002_0076 osama bin laden
002_0077 american free trade
002_0092 weposaeteng ya lefapha la temo
002_0093 lejwe
002_0094 close air support
002_0100 latelang di tla kotjwa bakeng
002_0101 kiana
002_0103 american sign language
002_0106 ena ka sepheo sa ho
002_0107 haufi tsa ntshetsopele ya setjhaba
002_0108 park
002_0111 states district court
002_0113 memphis
002_0120 western european countries
002_0122 northern mariana islands
002_0123 international astronomical union
002_0128 ya hao e tla lekolwa
002_0130 united states declaration
002_0131 larry
002_0132 ancient near east
002_0135 cognitive behavioral therapy
002_0139 imperial japanese navy
002_0150 ho thehwa ha diyuniti tsa
002_0153 tone ka nngwe ho tsamaisa
002_0155 ya foromo ena e fuwe
002_0159 american musical theatre
002_0166 kenya tshebetsong mokgwa wa ho
002_0169 new testament canon
002_0171 hong kong island
002_0181 nna tsa kgannela tshenyong e
002_0187 transvala
002_0195 ba badudi ba saruri ba
002_0196 ntle mofuta wa hlapi o
002_0197 ka mokgwa o hlwahlwa ho
002_0200 meade
002_0202 nebula award winning
002_0206 ho fana ka beile le
002_0210 national public radio
002_0213 clarify date february
002_0215 california state university
002_0222 south sandwich islands
002_0225 e ne e le sebaka
002_0226 moo e leng hore ho
002_0232 ho qetela la ho sebetsa
002_0233 bethal
002_0236 kopanelo ya boitshwaro bo botle
002_0237 ya tlhaselo e eso fihle
002_0238 nobel prize winners
002_0243 average life expectancy
002_0244 religious
002_0249 petroleum exporting countries
002_0256 leondale
002_0261 functional programming languages
002_0267 ho bonahala eka ha ho
002_0268 a sa siya wili e
002_0270 aung san suu
002_0271 ya ho ba teng ho
002_0273 ba thupelo ba lokela ho
002_0274 president harry
002_0277 pope benedict
002_0279 persian gulf states
002_0283 notable examples include
002_0285 fane ka nomoro ya akhauntu
002_0287 ho tswela pele ho ya
002_0290 re tla dula re ntse
002_0295 liberal arts college
002_0307 tse haufi tsa ntshetsopele ya
002_0308 valence bond theory
002_0309 kansas city royals
002_0319 nang le tokelo ya ho
002_0320 dikgeong tsa mesebetsi ya sehlopha
002_0321 high middle ages
002_0326 marcel
002_0328 tlameha ho balwa ka botebo
002_0329 management
002_0330 catherine
002_0333 austrian school economists
002_0334 army occupied cypriot
002_0337 wa setjhaba lawrence mushwana o
002_0338 mananeo a mmuso a ho
002_0345 kopo e tlameha ho felehetswa
002_0349 mahola ke sera sa pele
002_0358 melbourne football club
002_0363 ho kganna ya borutehi bo
002_0367 europe music
002_0369 palestinian national authority
002_0372 botoloki ka mohala tsa afrika
002_0374 billion years ago
002_0376 hard disk drive
002_0379 animated television series
002_0380 hloleha ho etsa jwalo ho
002_0384 grisly
002_0385 united states government
002_0389 united states dollar
002_0390 di ka qojwang ka teng
002_0393 rapid economic growth
002_0395 tsa lehae provinseng eo o
002_0404 gcis e ka fana ka
002_0405 western united states
002_0406 of access to information act
002_0407 itseng ntle le ho ama
002_0414 grand
002_0415 le hore re kgone ho
002_0416 kopo ya bodulo ba saruri
002_0417 pimville
002_0419 la nakwana le lokelwang ho
002_0420 motherwell
002_0430 kopo e ka se elwe
002_0434 sound
002_0439 garrick
002_0440 reef
002_0445 old garden roses
002_0448 ditlhaloso tsa lengolo la truste
002_0457 state university alumni
002_0461 dubious date april
002_0464 ho tshela oli e ntjha
002_0470 islamic conference oic
002_0472 professional american football
002_0475 ya grain sa ya tlhahiso
002_0477 comic book series
002_0483 european union member
002_0485 asian financial crisis
002_0486 king james version
002_0492 open source initiative
002_0496 hubble space telescope
002_0505 essential fatty acids
002_0506 real gdp growth
002_0508 clarify date november
002_0510 ya seteraeke kapa ho notlellwa
003_0002 dennilton
003_0003 rephaboliki
003_0004 imperial japanese navy
003_0009 northern
003_0011 ancient near east
003_0015 foromo ya kopo ka dikopi
003_0018 security assistance force
003_0020 ha eba poone e iswa
003_0021 leondale
003_0022 game boy advance
003_0028 billy
003_0036 fane ka nomoro ya akhauntu
003_0037 notable examples include
003_0040 mabapi le tshireletso ya dijo
003_0055 atlantic
003_0058 mang le a mang a
003_0060 american television actors
003_0066 pele ho ka jalwa sejothollo
003_0071 valence bond theory
003_0077 moralo wa tshebetso wa naha
003_0078 ho kganna ya borutehi bo
003_0080 motherwell
003_0083 president harry
003_0084 bakeng la tsebo ya mosebetsi
003_0085 europe music
003_0087 random access memory
003_0088 roman catholic archbishops
003_0092 marcel
003_0094 united states district
003_0095 ho bonahala eka ha ho
003_0099 major professional sports
003_0100 new testament canon
003_0106 northern mariana islands
003_0108 mananeo a mmuso a ho
003_0110 grisly
003_0113 hubble space telescope
003_0114 kopo ya ho ngodisa khampani
003_0118 tse ka hodimo ho tse
003_0119 atlantic treaty organization
003_0120 jwalo ka ha ho bontshitswe
003_0122 petroleum exporting countries
003_0125 king james version
003_0127 lekala la thuto le thupelo
003_0129 sound
003_0133 professional american football
003_0140 ford motor company
003_0142 seetebosigo
003_0146 average life expectancy
003_0151 diporofensi di a nahanwa boemong
003_0154 state university alumni
003_0160 comic book series
003_0161 ofe kapa ofe wa mmuso
003_0162 dubious date april
003_0163 black sea coast
003_0166 tsa diporofensi di a nahanwa
003_0169 kansas city royals
003_0172 german air force
003_0177 early morning hours
003_0184 le tumello e ngotsweng fatshe
003_0186 memphis
003_0191 ka hara lekgotla la naha
003_0193 roodepoort
003_0196 open source initiative
003_0197 samuel's
003_0201 hauhelele
003_0204 hang ha ho se ho
003_0205 kiana
003_0210 states district court
003_0218 states unemployment rate
003_0225 american musical theatre
003_0227 test ban treaty
003_0228 western united states
003_0229 thibelang lefu ka mora ketsahalo
003_0236 old garden roses
003_0238 ho kenyelletswa le ditaba tse
003_0240 le hore re kgone ho
003_0241 grand
003_0243 american voice actors
003_0247 of access to information act
003_0248 e tshwanetse ho phethwa ka
003_0250 american nobel laureates
003_0256 ke wa qobella molemi ho
003_0259 british foreign secretary
003_0274 ha o a dumellwa ho
003_0280 dilemong tse mmalwa tse fetileng
003_0284 make extensive use
003_0290 high middle ages
003_0294 e bile wa bohlokwa ho
003_0295 british west indies
003_0296 tiisitse hore ha ho hlwahlwa
003_0300 ferry
003_0301 video game developers
003_0303 cognitive behavioral therapy
003_0304 united states began
003_0305 nka matsatsi a fihlang ho
003_0316 asian financial crisis
003_0318 bethal
003_0319 pope benedict
003_0327 tone ka nngwe ho tsamaisa
003_0331 hard disk drive
003_0332 nobel prize winners
003_0334 ho ba motswadi wa letholwa
003_0340 austrian school economists
003_0344 boyce
003_0345 ho thehwa ha diyuniti tsa
003_0356 hong kong island
003_0358 ba thupelo ba lokela ho
003_0361 islamic conference oic
003_0367 palestinian national authority
003_0368 rapid economic growth
003_0376 pimville
003_0378 united states government
003_0385 war political
003_0386 ho sebedisa lebitso le molaong
003_0390 national public radio
003_0397 melbourne football club
003_0415 ba ratang naha ya habo
003_0417 national baseball hall
003_0425 ho sebedisa thaere e kgolwanyane
003_0426 close air support
003_0429 fact date january
003_0431 billion years ago
003_0439 tse tshwanetseng ho elwa hloko
003_0441 le hore ho tle ho
003_0442 sexually transmitted diseases
003_0446 music awards winners
003_0447 reef
003_0456 south sandwich islands
003_0465 republican party united
003_0471 le ngodisitsweng mona afrika borwa
003_0475 african unity oau
003_0476 positive real numbers
003_0484 episcopal church usa
003_0487 park
003_0488 ho isa ho tse nne
003_0490 kopo e tlameha ho felehetswa
003_0494 old east norse
003_0495 institjhute
003_0496 e ka nka dikgwedi tse
003_0499 ba dilemo tse ka hodimo
003_0502 form hydrogen bonds
003_0504 real gdp growth
003_0505 ho ya ka dipehelo tsa
003_0507 human rights record
003_0511 mafelong a kgwedi e nngwe
003_0512 winter olympic games
003_0515 american short story
003_0520 wayne state university
003_0524 moo o ile wa sebediswa
003_0526 arizona state university
003_0529 clarify date november
003_0531 guru granth sahib
003_0532 chinese civil war
003_0535 american musical theatre
003_0538 kapa ofe ya batlang ho
003_0541 halleck
003_0543 essential fatty acids
003_0545 day saint movement
004_0001 station
004_0002 george
004_0005 tsa palamente di tlameha ho
004_0006 leondale
004_0007 pakeng tsa batho ba babedi
004_0008 london
004_0009 northern mariana islands
004_0011 khopi e netefaditsweng ya bukana
004_0013 northern
004_0014 war political
004_0015 o nka kilograma e le
004_0016 tlameha ho felehetsa kopo ka
004_0017 moya wa ho etsa dintho
004_0023 ya bt papisong le mekgwa
004_0024 atlantic treaty organization
004_0026 europe music
004_0029 jwalo ka ha ho bontshitswe
004_0030 temeng ya saense ya lekgotleng
004_0034 moo e leng hore ho
004_0035 mokga oo a etsang kopo
004_0037 religious
004_0038 leano le ona o hlokometse
004_0039 palestinian national authority
004_0041 kopo e tlameha ho felehetswa
004_0043 ho itsebisa jwalo ka ntate
004_0044 union member states
004_0049 meade
004_0050 tshebediso e phahameng ya sesebediswa
004_0053 extension
004_0055 mabapi le maemo a setjhaba
004_0056 toka le ntshetsopele ya molao
004_0057 thibelang lefu ka mora ketsahalo
004_0058 mariha e hloka nako e
004_0059 di ka romelwa ofising efe
004_0061 european union member
004_0063 bontshang kamano pakeng tsa theko
004_0064 dilemong tse mmalwa tse fetileng
004_0065 ho ngodisa jwalo ka setsebi
004_0067 ha eba o na le
004_0068 persian gulf states
004_0069 afrika borwa jwalo ka ha
004_0072 fact date january
004_0074 pope benedict
004_0076 morao ka dilemo tse ngata
004_0077 ka hara naha ya afrika
004_0080 islamic conference oic
004_0083 mang le a mang a
004_0084 kopo ya phemiti ya phapanyetsano
004_0086 pro football hall
004_0090 memphis
004_0091 black sea coast
004_0093 functional programming languages
004_0095 di fetwa ka bohlwahlwa ke
004_0097 average life expectancy
004_0098 park
004_0099 dikokwanyana ka thibelo ya mefuta
004_0101 tlosa pompo pele ba ilo
004_0102 dipalopalo
004_0103 wa diphoofolo kapa bolaodi bo
004_0106 hlalositsweng bakeng sa ditjhelete tse
004_0107 dennilton
004_0108 american science fiction
004_0110 boholo ba nako e etsang
004_0112 open source initiative
004_0113 sa silafatsa phepelo ya metsi
004_0114 kiana
004_0115 ka mokgwa o hlwahlwa ho
004_0116 ho sebedisa lebitso le molaong
004_0117 imperial japanese navy
004_0118 boyce
004_0119 ho mokga o laolang wa
004_0120 united states declaration
004_0121 masimo a mang le a
004_0122 ka moo ho ka kgonehang
004_0123 ho bonahala eka ha ho
004_0124 ho sebedisa thaere e kgolwanyane
004_0125 leng hore ha ho hlokehe
004_0127 asian financial crisis
004_0129 osama bin laden
004_0130 saense ya lekgotleng la molao
004_0131 petroleum exporting countries
004_0132 ba thupelo ba lokela ho
004_0133 king james version
004_0136 united states began
004_0137 knights grand cross
004_0138 reef
004_0139 ferry
004_0140 british west indies
004_0142 tlameha ho ba karolo ya
004_0143 ya tse romellwang ka ntle
004_0144 united states dollar
004_0145 ho teng ba bang ba
004_0146 old east norse
004_0147 box office success
004_0148 ho tswela pele ho ya
004_0149 ice hockey team
004_0150 ho fana ka beile le
004_0151 frank lloyd wright
004_0152 hong kong island
004_0153 wa batswadi kapa mohlokomedi wa
004_0154 dikgopo tsa mahlaku hloohong ya
004_0155 nakong ya dikgwedi tsa hlabula
004_0156 grisly
004_0158 american musical theatre
004_0160 khopi ya rasiti e saennweng
004_0163 re tla sebetsa ka matla
004_0164 hubble space telescope
004_0167 ba puo e tla hloka
004_0168 western united states
004_0169 of access to information act
004_0170 ha eba poone e iswa
004_0171 ho ya ho se seng
004_0172 eo ho dumellanweng ka yona
004_0173 nebula award winning
004_0174 mananeo a mmuso a ho
004_0175 early morning hours
004_0176 le mekgwa e meng ya
004_0177 tsa theko ya sehlahiswa le
004_0179 o tshwanetse ho tseba hore
004_0180 mokopi le mohatsa hae ba
004_0181 ya ba mmalwa e ngodisitsweng
004_0182 united states navy
004_0183 african unity oau
004_0184 video game developers
004_0185 positive real numbers
004_0186 metsi a ka nnang a
004_0187 moahi wa afrika borwa kapa
004_0188 nna tsa kgannela tshenyong e
004_0189 tse ntjha tsa ho banka
004_0191 sebaka moo sepudutsi se ke
004_0192 austrian school economists
004_0193 le ngodisitsweng mona afrika borwa
004_0194 ho fafatsa kgahlanong le mahola
004_0195 melbourne football club
004_0197 sexually transmitted diseases
004_0199 francisco bay area
004_0200 hloleha ho etsa jwalo ho
004_0201 ho isa ho tse nne
004_0202 ofisi ya iss ya afrika
004_0203 kopo e ka se elwe
004_0205 american voice actors
004_0206 latelang di tla kotjwa bakeng
004_0208 mabapi le tshireletso ya dijo
004_0211 setsheng sa bafu sa poraefete
004_0212 ofe kapa ofe wa mmuso
004_0214 lekala la thuto le thupelo
004_0215 tiisitse hore ha ho hlwahlwa
004_0216 liberal arts college
004_0217 dilemong tse ngata tse fetileng
004_0220 roman catholic archbishops
004_0222 tlhahisoleseding e fumanwe bukaneng ya
004_0223 boston red sox
004_0225 ke molao wa motheo ho
004_0227 sefe sa tlhahlobo ya laesense
004_0228 sa moralo wa puo ho
004_0230 ho tswa ho moabi ya
004_0231 basebeletsi ba lefapha la ditaba
004_0232 marcel
004_0233 baemedi ba porofensi ho ncop
004_0234 tswa dinaheng tsa ka ntle
004_0238 borwa di tlameha ho ngodiswa
004_0239 etsa kopo bakeng sa phemiti
004_0243 phasepoto ya hao ya afrika
004_0244 le haebe ho boletswe ka
004_0246 mmala o motsho le bosweu
004_0248 seo o lokelang ho se
004_0249 music awards winners
004_0250 phahameng ya poone le mmaraka
004_0251 german air force
004_0254 ho ntlafatsa boleng ba bophelo
004_0255 e poraefete ya ho fihlella
004_0256 tsa lehae provinseng eo o
004_0259 le moemedi wa afrika borwa
004_0261 wa provinse ya bophelo bo
004_0262 hloka bokgoni ba ho phetha
004_0263 western united states
004_0264 ho qetela la ho sebetsa
004_0265 ditlhaloso tsa lengolo la truste
004_0266 le kgahleho bophelong ba motletlebi
004_0268 army occupied cypriot
004_0269 ho ngodisa khampani e poraefete
004_0270 o ne o sebediswa ke
004_0272 di ka nna tsa fetoha
004_0274 fact date july
004_0275 e ise embasing kapa misheneng
004_0278 pimville
004_0280 nang le tokelo ya ho
004_0281 aung san suu
004_0283 efe kapa efe ya yona
004_0286 wa ho qala wa leloko
004_0287 mahola ke sera sa pele
004_0288 ludwig von mises
004_0289 notable examples include
004_0290 ho fela ho potlakileng ha
004_0291 lokela ho lefa lekgetho la
004_0292 le tumello e ngotsweng fatshe
004_0294 lejwe
004_0295 balemi ba ntseng ba thuthuha
004_0296 valence bond theory
004_0300 romela ka mora nako ditlaleho
004_0301 general public license
004_0302 le ho haha setjhaba sa
004_0303 tla neha ba leloko sebaka
004_0304 tsa tlhahlobo tse molaong mme
004_0305 states district court
004_0306 test ban treaty
004_0309 e tshwanetse ho phethwa ka
004_0310 new york jets
004_0311 tshwaneleha ka mora nako e
004_0312 ka mora nako e itseng
004_0313 ho thola ngwana ka molao
004_0314 le teng ka nako tsohle
004_0315 national baseball hall
004_0318 molaotheo wa afrika borwa o
004_0320 management
004_0323 clarify date february
004_0324 motherwell
004_0326 state university alumni
004_0327 itseng ntle le ho ama
004_0328 haufi tsa ntshetsopele ya setjhaba
004_0329 seetebosigo
004_0331 a sa siya wili e
004_0333 kapa o tshwerwe tlasa mental
004_0336 mme ho tla ya ka
004_0338 pele ho ka jalwa sejothollo
004_0340 tone ka nngwe ho tsamaisa
004_0341 ho tla nne ho dule
004_0342 united states district
004_0343 american sign language
004_0345 ancient near east
004_0346 international astronomical union
004_0347 ba teng ka dipuo tse
004_0348 ho thehwa ha diyuniti tsa
004_0350 tshwaneleha le moruo wa tshebetso
004_0351 grain sa ya tlhahiso ya
004_0353 puo ya bajete le setatemente
004_0354 states unemployment rate
004_0355 e netefaditsweng ya bukana ya
004_0356 catherine
004_0358 le hore re kgone ho
004_0359 royal dutch shell
004_0361 hang ha ho se ho
004_0362 weposaeteng ya lefapha la temo
004_0363 dubious date april
004_0365 kopo ya ho ngodisa khampani
004_0367 boramesebetsi ba lokela ho saena
004_0369 ho beha leihlo tshebediso ya
004_0370 islamic conference oic
004_0371 ho kganna ya borutehi bo
004_0372 ya naha e tshwereng motho
004_0373 billion years ago
004_0374 grand
004_0375 american political writers
004_0376 hard disk drive
004_0377 ho kenyelletswa le ditaba tse
004_0378 ford motor company
004_0379 nobel prize winners
004_0380 e ya weposaeteng ya lefapha
004_0381 sebediswang wa ho phethola mobu
004_0383 ke wa qobella molemi ho
004_0386 clarify date march
004_0387 tsamaiso ya sehlopha sa boithuto
004_0388 ka ho etsa kopo ya
004_0389 ho ngodisa setsi sa tlhahlobo
004_0390 fane ka nomoro ya akhauntu
004_0392 botoloki ka mohala tsa afrika
004_0394 president harry
004_0395 bo botjha le ho sebedisa
004_0398 rapid economic growth
004_0399 ya south african revenue service
004_0401 letowana
004_0402 dikgatiso tsa tshebediso ya dipuo
004_0403 game boy advance
004_0405 kgannelang tlhaselong e eketsehang ya
004_0407 ke notary public kapa mokhomishenara
004_0408 tumellano ya nakwana le seng
004_0409 ke boikarabelo ba moahi e
004_0412 make extensive use
004_0415 national public radio
004_0417 comic book series
004_0418 old garden roses
004_0419 tshebetso tsa lekgetho la kuno
004_0423 polasi le nang le boleng
004_0425 tlameha ho balwa ka botebo
004_0428 eo e leng karolo ya
004_0430 united nations high
004_0432 rephaboliki
004_0433 kansas city royals
004_0434 ka kamano ya ho se
004_0435 boafrika borwa ba rona bo
004_0436 le hore ho tle ho
004_0438 malwetse a pustule a bakwang
004_0439 british foreign secretary
004_0441 kgothalletswa ho ithuta dipuo tse
004_0442 ya tlhahisoleseding tshebetsong ya toka
004_0449 republican party united
004_0451 o lokela ho etsa kopo
004_0452 new testament canon
004_0453 ho etsa diteko tsa hiv
004_0456 western european countries
004_0457 south sandwich islands
004_0458 larry
004_0459 sa ntsaneng a le manyane
004_0460 dikgeong tsa mesebetsi ya sehlopha
004_0461 ka tsela efe kapa efe
004_0462 ke sesebediswa se sebetsang ka
004_0463 motho ofe kapa ofe eo
004_0464 ka modulasetulo wa sehlopha sa
004_0465 ya foromo ena e fuwe
004_0468 ho feta ka moo ho
004_0472 ho bohlokwa ka ho fetisisa
004_0474 samuel's
004_0478 nna a fetoha sebaka moo
004_0480 ikopanye le ofisi ya lefapha
004_0481 garrick
004_0482 major professional sports
004_0483 security assistance force
004_0484 kopo ya bodulo ba saruri
004_0485 ya hao e tla lekolwa
004_0486 kenya tshebetsong mokgwa wa ho
004_0487 mane ho isa ho a
004_0488 tla ba le seabo se
004_0490 united states air
004_0491 theko ya sehlahiswa le bongata
004_0492 o tshwanetse ho ela hloko
004_0493 episcopal church usa
004_0499 professional american football
004_0502 president woodrow wilson
004_0503 ha jwale e amanang le
004_0505 dikarolong tsa yona tsa metso
004_0506 united states federal
004_0507 eo ba nang le yona
004_0509 united arab emirates
004_0510 di fapana ho ya ka
004_0512 missing living people
004_0513 sera
004_0514 mafelong a kgwedi e nngwe
004_0516 arizona state university
004_0517 ho hloleha ho etsa jwalo
004_0521 etsa hore a kgone ho
004_0522 dikgatiso tsa menwana ya mokopi
004_0523 pele ho ngodiso ho ya
004_0524 ya tswelang pele ka mosebetsi
004_0525 ba mmalwa le traste ditho
004_0526 american musical theatre
004_0527 united states army
004_0528 e leng commission for conciliation
004_0530 central processing unit
004_0531 o loketseng tlhahiso ya dijothollo
004_0532 power parity comparisons
004_0533 north west company
004_0534 states presidential candidates
004_0535 chinese civil war
004_0536 ho ithuta dipuo tse ding
004_0537 motho ya jwalo ha se
004_0538 ebe o nka kilograma e
004_0540 a mmalwa ho ya dibekeng
004_0541 guru granth sahib
004_0542 jewish american writers
004_0543 mtv video music
004_0544 ya moithuti e le yona
004_0545 real gdp growth
004_0547 nka nako e ka etsang
004_0548 ke e nngwe ya dintlha
004_0549 ya bt di tshwanetse ho
004_0552 mokgwa o sa tlwaelehang re
004_0553 kansas state university
004_0555 halleck
004_0557 terekere le disebediswa tsa temo
004_0558 ka mehla bala leibole ya
004_0560 hore ditho tsa palamente di
004_0561 chinese communist party
004_0562 hang ka selemo ka mora
004_0563 lokela ho tlatswa ke bajalefa
004_0564 nka nako e telele ho
004_0567 clarify date november
004_0569 ho ya ka dipehelo tsa
004_0570 american short story
004_0573 palamente ya rephaboliki ya afrika
004_0575 social democratic party
004_0577 bahwebi ba sa sebedise tlwaelo
004_0579 lengolo la bopaki la phytosanitary
004_0580 received mixed reviews
004_0583 ba dilemo tse ka hodimo
004_0585 mohahamoriti
004_0586 san pedro sula
004_0588 kopo ya hao ka tsela
004_0591 ho etsa qeto mabapi le
004_0592 social democratic parties
004_0594 dutton
004_0596 metsi a mangata hoo tse
004_0597 ka mokgwa ofe kapa ofe
004_0598 ya hao setatementeng sa banka
004_0599 ho latela dipehelo tsa molao
004_0600 ya ka maemo a amohelehileng
004_0601 seteisheneng sa mapolesa se haufi
004_0603 jwaloka ha o fetisitswe le
004_0606 ya beke le beke ya
004_0607 afidaviti eo ho entsweng kano
004_0608 le haufi le la sars
004_0610 bonaparte
004_0611 jwalo ka o motjha mme
004_0612 ya b di be tharo
004_0613 form hydrogen bonds
004_0614 ludwig von mises
004_0615 edwin
004_0616 sa ho ba le seabo
004_0617 n g rjuna
004_0618 o le moahi wa afrika
004_0619 qhamakwane
004_0620 treaty organization nato
004_0621 john von neumann
004_0623 civil class
004_0624 human rights record
004_0625 winter olympic games
004_0627 nakong ya matsatsi a balemi
004_0628 tse nyenyane le tse mahareng
004_0629 moo o ile wa sebediswa
004_0631 ya jwalo ha se mang
004_0632 native american tribes
004_0634 quantum field theory
004_0638 day saint movement
004_0639 internal combustion engine
004_0640 tlameha ho tlatswa ke mokopi
004_0641 los angeles county
004_0642 wayne state university
004_0645 international criminal court
004_0646 late twentieth centuryodowska curie
004_0647 pope urban
004_0648 itshebetsang puong jwalo ka bafetoledi
004_0652 e batlang e le ntle
004_0654 essential fatty acids
004_0655 test ban treaty
004_0656 italian roman catholics
004_0657 atlantic slave trade
004_0658 lekgotla la afrika borwa la
004_0662 education
004_0663 guano islands act
004_0664 david
004_0665 international financial institutions
004_0666 ya seteraeke kapa ho notlellwa
004_0668 le tlhokeho e potlakileng ya
004_0670 ditherisano tse kopanetsweng ke basebetsi
004_0672 le thibelo ya kgethollo e
004_0674 la metsi a mangata hoo
004_0675 batho ba bang ke ba
004_0676 boemong bo hodimo bakeng la
004_0678 ridgeway
004_0679 kutu
004_0681 president
004_0682 supreme court justice
004_0684 british west indies
004_0687 ha e a tshwanela ho
004_0689 eo ho fihlwang ho yona
004_0690 la dithuto la afrika borwa
004_0691 le hore hara mananeo a
004_0693 butle haholo hoo balemi ba
004_0694 italian roman catholics
004_0696 wa afrika borwa ntle le
004_0697 tla amohelwa jwalo ka setswantle
004_0698 empa re ke ke ra
004_0699 lebanese armed forces
004_0700 ntshetsopele ya molemi wa grain
004_0704 ho kenweng ho ona ka
004_0705 leanong la naha la puo
004_0707 cosmic microwave background
004_0708 re batla ho tswela pele
004_0709 north germanic languages
004_0710 pakeng tsa afrika borwa le
004_0711 lebitso la seteishene sa mapolesa
004_0713 united states relations
004_0714 world trade center
004_0716 sebakeng seo ho sona disebediswa
004_0717 le dimela mabapi le mongobo
004_0719 diphaphosing tsa borutelo ka nako
004_0721 bo le ka tlase ho
004_0722 melongwana e seng e kgathetse
004_0724 higher education institutions
004_0726 ba eba siyo lebatoweng leo
004_0727 abednego
004_0728 final resting place
004_0729 etsa kopo ya ho busetswa
004_0730 major league baseball
004_0731 bakeng sa ho romela hlapi
004_0732 sherman's
004_0733 kenyelletswa le ditaba tse mabapi
004_0734 jwang ho matlafatsa kapa hona
004_0735 mathata a phepelo ya motlakase
004_0736 american football conference
005_0005 great lakes region
005_0007 ho ntsha raporoto ya radiology
005_0008 madison square garden
005_0011 high seas fleet
005_0012 russian civil war
005_0013 golden globe winners
005_0015 september
005_0018 formal diplomatic relations
005_0019 le ho romela ditokomane ho
005_0020 nfc championship game
005_0021 dipeo le dipeo tse hlahang
005_0028 laesense ya boditjhaba ya ho
005_0031 good
005_0032 primitive recursive functions
005_0033 ozone layer protection
005_0043 saint john river
005_0044 baheno
005_0046 man
005_0051 le reng limited le tla
005_0060 european economic area
005_0061 ho behela taelo ka thoko
005_0064 international atomic energy
005_0065 lekgotleng la dinyewe ho tla
005_0069 ka morero wa ho matlafatsa
005_0071 kenngwa ha jine ya bt
005_0077 cathode ray tube
005_0081 bilateral immunity agreement
005_0082 chancellorsville
005_0100 new york yankees
005_0104 org wiki wikipedia
005_0123 modern orthodox judaism
005_0127 be bonolo ho palama baesekele
005_0128 magnetic resonance imaging
005_0129 ke ke wa kgona ho
005_0131 recreation
005_0139 supreme court ruled
005_0141 common law jurisdictions
005_0142 leng se bolelang hore ho
005_0145 south asian association
005_0148 buddhism
005_0150 law enforcement agencies
005_0151 free methodist church
005_0152 tlamehile maoto le matsoho ho
005_0154 madison square garden
005_0155 science fiction novel
005_0160 national science foundation
005_0161 proffesor
005_0165 sa witblits se neng se
005_0174 re kopa hore o ele
005_0175 ho tshwarella nako e telele
005_0178 junior high school
005_0179 army air corps
005_0180 tse felletseng tsa moo ho
005_0184 fact date march
005_0189 indastering e batsi ya temo
005_0190 big bang model
005_0191 fact date august
005_0192 nuclear test ban
005_0195 environmental protection agency
005_0200 nelson mandela le thabo mbeki
005_0206 palestine liberation organization
005_0208 grammatical
005_0213 randfontein
005_0217 following world war
005_0218 october
005_0221 foreign direct investment
005_0224 se fetileng sa hlabula e
005_0228 united states president
005_0232 church turing thesis
005_0235 e tla fapana ka ho
005_0243 gibbon
005_0248 ho ba teng ha lenaneo
005_0263 durban
005_0267 miller's
005_0268 internet protocol suite
005_0269 taolo ka dikhemikhale le mefuta
005_0271 randburg
005_0278 motor vehicle manufacturers
005_0281 league baseball team
005_0283 ka ntle ya batlang ho
005_0287 hospital
005_0291 television shows set
005_0292 fiction television series
005_0294 american film producers
005_0298 boqwabi
005_0302 nako e telele ho tiisitse
005_0305 e tswang ho registrar of
005_0306 articles including recorded
005_0308 l cuin abbr
005_0309 mesebetsi efe ya ho mmaraka
005_0320 e nang le share capital
005_0325 le dipehelo tse ding tse
005_0335 dutch east india
005_0337 poids et mesures
005_0338 screen actors guild
005_0341 bridgeport
005_0347 best foreign language
005_0348 hartbeespoort
005_0349 president george
005_0350 united states senate
005_0353 golden globe film
005_0357 harry
005_0360 potter's
005_0361 human development index
005_0363 san francisco giants
005_0365 american male singers
005_0368 ha eba o hloleha ho
005_0369 ha ho kgethwa dipuo tseo
005_0370 ntate wa ngwana ya tswetsweng
005_0376 efe kapa efe eo ho
005_0381 north germanic languages
005_0382 ba ka hodimo ho dilemo
005_0384 lekgotla la ho ntshuwa ha
005_0389 monroe
005_0394 average family size
005_0400 holy hand grenade
005_0413 seahelo sa ho lokisa tlhapi
005_0417 la ditaba tsa tikoloho le
005_0419 eighty years war
005_0423 bad
005_0426 recent common ancestor
005_0433 royal albert hall
005_0434 national hockey league
005_0438 national football team
005_0445 armoured fighting vehicles
005_0449 electron transport chain
005_0452 hore mobu o na le
005_0453 ha eba kere e potolohisang
005_0454 original game boy
005_0458 convention
005_0462 award winning authors
005_0463 bafta winners people
005_0472 american jewish people
005_0473 moscow state university
005_0474 red blood cells
005_0478 power parity comparisons
005_0479 united states geological
005_0480 tailor
005_0485 numeric character references
005_0495 ho se ho kenwe ho
005_0497 citation needed april
005_0499 ka mokgwa o sa tlwaelehang
005_0502 ya grain sa ya tlhahiso
005_0508 science fiction hall
005_0513 clarify date february
005_0514 ba thupelo ba lokela ho
005_0515 billy
005_0525 lefuweng bakeng sa tokelo ya
005_0526 sebediswang wa ho phethola mobu
005_0530 ya nka bolelele ba dibeke
005_0534 tlhekelo ka letona la bonono
005_0539 mahola ke sera sa pele
006_0001 tsa lehae provinseng eo o
006_0003 frank lloyd wright
006_0006 new testament canon
006_0007 boyce
006_0011 tsebiso ya lefapha le molaong
006_0013 open source initiative
006_0018 western united states
006_0019 pope benedict
006_0020 tsamaiso ya sehlopha sa boithuto
006_0021 game boy advance
006_0023 kopanelo ya boitshwaro bo botle
006_0024 phasepoto ya hao ya afrika
006_0025 bethal
006_0028 nobel prize winners
006_0033 imperial japanese navy
006_0035 pimville
006_0041 monetary fund imf
006_0044 royal dutch shell
006_0048 notable examples include
006_0050 dilemong tse mmalwa tse fetileng
006_0058 rapid economic growth
006_0059 hard disk drive
006_0060 e bile wa bohlokwa ho
006_0069 melbourne football club
006_0071 german air force
006_0072 malwetse a pustule a bakwang
006_0077 poone ya selelekela mabapi le
006_0081 lefuweng bakeng sa tokelo ya
006_0082 a kopane le nako eo
006_0085 samuel's
006_0088 religious
006_0089 national baseball hall
006_0090 dikgatiso tsa tshebediso ya dipuo
006_0099 american political writers
006_0101 ancient near east
006_0102 president harry
006_0104 ho ya ka palo ya
006_0107 major professional sports
006_0108 mabapi le tshireletso ya dijo
006_0116 ka moo ho ka kgonehang
006_0117 south
006_0122 catherine
006_0124 aung san suu
006_0126 roman catholic archbishops
006_0128 a hlahisa dikgwebo tsa tsona
006_0130 union member states
006_0132 state university alumni
006_0134 ludwig von mises
006_0138 garrick
006_0139 ke notary public kapa mokhomishenara
006_0141 clarify date february
006_0143 lejwe
006_0148 gcis e ka fana ka
006_0149 diporofensi di a nahanwa boemong
006_0152 fihlwang ho yona ya mohlahisi
006_0153 positive real numbers
006_0155 e ya weposaeteng ya lefapha
006_0158 ice hockey team
006_0159 united states dollar
006_0164 transvala
006_0166 average life expectancy
006_0169 dubious date april
006_0170 reef
006_0178 ditletlebo
006_0186 american musical theatre
006_0187 boholo ba nako e etsang
006_0189 army occupied cypriot
006_0193 ka mokgwa o hlwahlwa ho
006_0195 sa moralo wa puo ho
006_0199 box office success
006_0205 animated television series
006_0206 ya phemiti ya mosebetsi ya
006_0207 ba badudi ba saruri ba
006_0208 old garden roses
006_0212 random access memory
006_0214 hloleha ho etsa jwalo ho
006_0215 sexually transmitted diseases
006_0216 king james version
006_0220 khopi e netefaditsweng ya bukana
006_0222 eldorado
006_0223 valence bond theory
006_0225 re tla sebetsa ka matla
006_0226 park
006_0231 motherwell
006_0233 tlameha ho balwa ka botebo
006_0236 ditlhaloso tsa lengolo la truste
006_0243 botoloki ka mohala tsa afrika
006_0245 tsa diporofensi di a nahanwa
006_0249 video game developers
006_0251 kansas city royals
006_0253 united states declaration
006_0255 states unemployment rate
006_0257 persian gulf states
006_0259 clarify date march
006_0263 ho etsa diteko tsa hiv
006_0270 boston red sox
006_0273 tla ba le seabo se
006_0274 meade
006_0275 ferry
006_0278 comic book series
006_0279 music awards winners
006_0280 british foreign secretary
006_0283 le tumello e ngotsweng fatshe
006_0286 ho bohlokwa ka ho fetisisa
006_0287 austrian school economists
006_0291 hang ha ho se ho
006_0299 general public license
006_0302 phetoho efe kapa efe e
006_0303 e tiiseditsweng ha ditokomane di
006_0305 of access to information act
006_0306 south sandwich islands
006_0307 ikopanye le ofisi ya lefapha
006_0309 ke boikarabelo ba moahi e
006_0310 atlantic
006_0314 kiana
006_0315 le haebe ho boletswe ka
006_0318 ka baka la sephetho se
006_0319 nang le tokelo ya ho
006_0320 ofe kapa ofe wa mmuso
006_0321 make extensive use
006_0322 european union member
006_0325 larry
006_0327 dikgopo tsa mahlaku hloohong ya
006_0328 tumellano ya nakwana le seng
006_0329 rephaboliki
006_0336 le ho haha setjhaba sa
006_0337 northern mariana islands
006_0341 sefe sa tlhahlobo ya laesense
006_0346 national public radio
006_0347 black sea coast
006_0348 ho fana ka beile le
006_0354 cognitive behavioral therapy
006_0355 billion years ago
006_0356 united nations high
006_0357 united states government
006_0359 fact date july
006_0363 western united states
006_0364 liberal arts college
006_0369 moya wa ho etsa dintho
006_0375 ho etsa kopo ya tumello
006_0377 ya south african revenue service
006_0378 osama bin laden
006_0381 itseng ntle le ho ama
006_0385 islamic conference oic
006_0387 kgothalletswa ho ithuta dipuo tse
006_0388 billy
006_0390 states district court
006_0391 leondale
006_0393 grand
006_0394 management
006_0396 leo mobu o leng ho
006_0397 marcel
006_0401 international astronomical union
006_0411 tla neha ba leloko sebaka
006_0416 setsheng sa bafu sa poraefete
006_0417 british west indies
006_0427 security assistance force
006_0429 boafrika borwa ba rona bo
006_0431 ho thehwa ha diyuniti tsa
006_0432 functional programming languages
006_0433 petroleum exporting countries
006_0434 california state university
006_0438 memphis
006_0439 francisco bay area
006_0442 fane ka nomoro ya akhauntu
006_0447 high middle ages
006_0448 hubble space telescope
006_0450 di fetwa ka bohlwahlwa ke
006_0451 republican party united
006_0453 test ban treaty
006_0455 dipalopalo
006_0462 ha ho ne ho ena
006_0463 professional american football
006_0467 united states began
006_0468 dennilton
006_0470 fact date january
006_0477 o nka kilograma e le
006_0479 ho bonahala eka ha ho
006_0482 knights grand cross
006_0483 jwalo ka ha ho bontshitswe
006_0485 dintlha dife kapa dife tse
006_0487 ena ka sepheo sa ho
006_0489 ho kganna ya borutehi bo
006_0493 grisly
006_0498 seo o lokelang ho se
006_0499 african unity oau
007_0002 e le hore ba tle
007_0003 le reng limited le tla
007_0005 french west africa
007_0006 miller's
007_0012 blood
007_0016 efe kapa efe e boletsweng
007_0017 a ka nna a baka
007_0019 fact date march
007_0023 tse felletseng tsa moo ho
007_0025 buddhism
007_0028 o neng o rena ditherisanong
007_0029 articles including recorded
007_0030 ho se ho kenwe ho
007_0034 taolo ka dikhemikhale le mefuta
007_0035 mabapi le sehla se tlang
007_0037 environmental protection agency
007_0038 randfontein
007_0040 bay
007_0041 october
007_0042 harry
007_0047 good
007_0049 setifikeiti sa tswalo sa afrika
007_0052 gibbon
007_0054 madison square garden
007_0055 numeric character references
007_0056 magnetic resonance imaging
007_0060 system
007_0061 aterese ya moo o dulang
007_0062 john
007_0064 strategic air command
007_0065 ya pele e neng e
007_0066 russian civil war
007_0068 modern orthodox judaism
007_0071 be bonolo ho palama baesekele
007_0072 midrand
007_0075 dipuo tsa afrika borwa tsa
007_0087 kontane kapa ka tjheke e
007_0088 award winning authors
007_0089 best foreign language
007_0090 ba ka hodimo ho dilemo
007_0091 hartbeespoort
007_0092 lekgotla la ho ntshuwa ha
007_0096 e nngwe ya tsona e
007_0097 efe kapa efe eo ho
007_0099 palestine liberation organization
007_0102 haholo ke moruo wa tsona
007_0104 hospital
007_0106 united states
007_0107 united states senate
007_0111 tsa larvae hammoho le mahe
007_0113 tlasa merero e hlwauweng mona
007_0117 american male singers
007_0118 dipeo le dipeo tse hlahang
007_0119 la provinse kapa la naha
007_0121 saint john river
007_0122 bridgeport
007_0125 le ho tloswa ha matlakala
007_0127 motho ka mong o tlamehile
007_0128 new york yankees
007_0129 e ya ho lefapha la
007_0131 o lokela ho ba motho
007_0134 bafta winners people
007_0135 tlwaelo e ke ke ya
007_0136 mamelodi
007_0138 golden globe film
007_0140 kofi
007_0141 metsimaholo
007_0144 american film producers
007_0148 ka ho lekola tswelopele ya
007_0155 tsa taolo ka dikhemikhale le
007_0156 le o mong o na
007_0160 screen actors guild
007_0161 san francisco giants
007_0163 early church fathers
007_0168 mesebetsi e itseng ka ho
007_0170 armoured fighting vehicles
007_0173 ho tholwa ha ngwana ka
007_0174 e nang le share capital
007_0183 royal albert hall
007_0186 senqu
007_0195 boqwabi
007_0201 national football team
007_0202 randburg
007_0207 tsosoloso ya boemo ba theshiari
007_0208 sam
007_0213 electron transport chain
007_0215 international atomic energy
007_0221 tailor
007_0223 man
007_0225 bragg
007_0229 chancellorsville
007_0235 federal trade commission
007_0242 bilateral immunity agreement
007_0245 kgahlanong le dikgoka ho basadi
007_0250 org wiki wikipedia
007_0274 potter's
007_0275 original game boy
007_0276 dingane
007_0282 primitive recursive functions
007_0287 l cuin abbr
007_0288 tlhokeho ya mosebetsi wa ho
007_0289 ho tla etswa ho latela
007_0290 hall
007_0291 eighty years war
007_0296 provenseng kang ho tla ba
007_0297 e mabapi le maemo a
007_0299 president george
007_0301 supreme allied commander
007_0304 motho e mong ya nang
007_0305 states environmental protection
007_0312 e tlang tse mabapi le
007_0313 e leng se etsang hore
007_0317 mang ya ikemiseditseng ho nehelana
007_0323 human development index
007_0324 golden globe winners
007_0325 best supporting actor
007_0327 internet protocol suite
007_0328 law enforcement agencies
007_0329 european economic area
007_0330 recreation
007_0332 bad
007_0337 lebelo la ho potoloha ha
007_0339 formal diplomatic relations
007_0346 fifa world cup
007_0348 ntate wa ngwana ya tswetsweng
007_0349 ho sireletsa le ho matlafatsa
007_0367 ka mokgwa o hlakileng ho
007_0368 moralo wa leano la puo
007_0379 eo re neng re e
007_0382 science fiction novel
007_0384 grammatical
007_0385 nfc championship game
007_0390 roman catholic priests
007_0391 congressional gold medal
007_0393 united states geological
007_0394 valhalla
007_0399 free methodist church
007_0413 madison square garden
007_0417 bakeng sa nako ya boholo
007_0421 phemiti ya ho rafa kapa
007_0428 cathode ray tube
007_0430 ya hae ntle ho lebaka
007_0432 big bang model
007_0433 citation needed april
007_0435 motor vehicle manufacturers
007_0441 holy hand grenade
007_0444 foreign direct investment
007_0445 ding le tse ding tse
007_0450 ya ho ba teng ha
007_0451 great lakes region
007_0452 army air corps
007_0458 military coup
007_0459 league baseball team
007_0460 ba bangata ba nang le
007_0461 church turing thesis
007_0464 red blood cells
007_0466 lekgotleng la dinyewe ho tla
007_0468 junior high school
007_0469 leng se bolelang hore ho
007_0474 kapa hofe ho ka bang
007_0477 convention
007_0480 empire
007_0482 van der waals
007_0484 banka
007_0485 indastering e batsi ya temo
007_0487 july
007_0492 supreme court ruled
007_0494 monroe
007_0495 complaints
007_0501 ya naha e tshwereng motho
007_0502 ho ya ho se seng
007_0505 northern mariana islands
007_0509 ya bt papisong le mekgwa
007_0512 national baseball hall
007_0518 ancient near east
007_0529 nebula award winning
007_0541 united states navy
007_0547 south sandwich islands
007_0548 ya south african revenue service
007_0550 larry
007_0551 open source initiative
007_0555 dife kapa dife tse amanang
007_0558 ya ho ba teng ho
007_0560 fact date january
007_0564 ha o a dumellwa ho
007_0566 ya grain sa ya tlhahiso
007_0571 dubious date april
007_0572 sekgahla sa ho mela ha
007_0576 episcopal church usa
007_0578 war political
007_0587 video game developers
007_0589 king james version
007_0591 leng hore ha ho hlokehe
007_0592 animated television series
008_0002 fact date january
008_0003 o nka kilograma e le
008_0004 ramolodi
008_0005 ho ba le seabo lenaneong
008_0006 mariha e hloka nako e
008_0007 etsa kopo bakeng sa phemiti
008_0008 islamic conference oic
008_0009 baemedi ba porofensi ho ncop
008_0012 fihlwang ho yona ya mohlahisi
008_0013 park
008_0016 kopo ya bodulo ba saruri
008_0017 animated television series
008_0019 aterese le nomoro ya mohala
008_0021 ford motor company
008_0025 kansas city royals
008_0026 video game developers
008_0032 motheo
008_0035 music awards winners
008_0036 wa setjhaba lawrence mushwana o
008_0040 tshebetso tsa lekgetho la kuno
008_0042 united states navy
008_0043 lejwe
008_0045 europe music
008_0046 leondale
008_0048 pimville
008_0051 letowana
008_0052 saense ya lekgotleng la molao
008_0057 ho tswa ho moabi ya
008_0061 western united states
008_0064 religious
008_0067 extension
008_0074 states district court
008_0075 old garden roses
008_0076 dipalopalo
008_0077 nna a fetoha sebaka moo
008_0079 polasi le nang le boleng
008_0081 grain sa ya tlhahiso ya
008_0083 ya bt papisong le mekgwa
008_0085 tlhekelo
008_0087 management
008_0093 le hore re kgone ho
008_0095 united states government
008_0098 union member states
008_0100 tse ka hodimo ho tse
008_0102 mane ho isa ho a
008_0105 valence bond theory
008_0107 european union member
008_0110 mahola ke sera sa pele
008_0111 professional american football
008_0112 black sea coast
008_0114 open source initiative
008_0116 ka hara naha ya afrika
008_0117 ice hockey team
008_0128 dubious date april
008_0130 american political writers
008_0131 dintho ka mokgwa o sa
008_0132 sexually transmitted diseases
008_0133 station
008_0136 eo ho dumellanweng ka yona
008_0137 phasepoto ya hao ya afrika
008_0141 memphis
008_0142 ya foromo ena e fuwe
008_0144 pro football hall
008_0145 united states began
008_0151 khopi e netefaditsweng ya bukana
008_0152 dikgatiso tsa tshebediso ya dipuo
008_0153 dilemong tse ngata tse fetileng
008_0154 united states dollar
008_0157 united states declaration
008_0159 close air support
008_0161 jwalo ka ha ho bontshitswe
008_0162 ho ngodisa khampani e poraefete
008_0163 aung san suu
008_0166 clarify date march
008_0167 khopi ya rasiti e saennweng
008_0168 o lokela ho etsa kopo
008_0170 general public license
008_0173 ofisi ya iss ya afrika
008_0175 american television actors
008_0176 marcel
008_0178 tse tshwanetseng ho elwa hloko
008_0179 international astronomical union
008_0181 puo ya bajete le setatemente
008_0183 ya dipuo tsa motswalla tse
008_0184 seetebosigo
008_0188 phemiti ya ditswantle ya bongaka
008_0192 mekgatlo e adimanang ka tjhelete
008_0194 ya south african revenue service
008_0197 le moemedi wa afrika borwa
008_0199 african unity oau
008_0202 tiisitse hore ha ho hlwahlwa
008_0207 mona afrika borwa e lokelwa
008_0210 persian gulf states
008_0211 roodepoort
008_0213 british foreign secretary
008_0214 pope benedict
008_0216 masimo a mang le a
008_0217 american voice actors
008_0219 e tshwanetse ho phethwa ka
008_0220 ho itsebisa jwalo ka ntate
008_0222 sound
008_0224 fact date july
008_0225 south sandwich islands
008_0226 samuel's
008_0227 phetoho efe kapa efe e
008_0230 box office success
008_0231 ke notary public kapa mokhomishenara
008_0232 larry
008_0233 ka modulasetulo wa sehlopha sa
008_0234 theko ya sehlahiswa le bongata
008_0235 ka tsela efe kapa efe
008_0236 comic book series
008_0237 tumellano ya nakwana le seng
008_0238 nka matsatsi a fihlang ho
008_0239 royal dutch shell
008_0241 ke mohlodi wa bohlokwa wa
008_0242 ka ho etsa kopo ya
008_0244 ha eba poone e iswa
008_0245 francisco bay area
008_0247 ya tlhaselo e eso fihle
008_0248 nang le tokelo ya ho
008_0250 republican party united
008_0251 imperial japanese navy
008_0255 ho thehwa ha diyuniti tsa
008_0256 ya grain sa ya tlhahiso
008_0257 le ho haha setjhaba sa
008_0259 diporofensi di a nahanwa boemong
008_0261 moya wa ho etsa dintho
008_0262 new testament canon
008_0264 war political
008_0265 rapid economic growth
008_0266 test ban treaty
008_0267 american nobel laureates
008_0271 ya nka bolelele ba dibeke
008_0272 hloka tumello e ikgethang e
008_0273 sefe sa tlhahlobo ya laesense
008_0275 re tla sebetsa ka matla
008_0278 itseng ntle le ho ama
008_0279 petroleum exporting countries
008_0280 bahlokomedi ba bona ba molao
008_0283 united states district
008_0286 borwa di tlameha ho ngodiswa
008_0287 a hlahisa dikgwebo tsa tsona
008_0288 billion years ago
008_0290 lekala la thuto le thupelo
008_0291 a dintwa tsa ka malapeng
008_0294 american musical theatre
008_0296 eldorado
008_0299 ho etsa diteko tsa hiv
008_0300 e ne e le sebaka
008_0306 mokga oo a etsang kopo
008_0308 hard disk drive
008_0311 liberal arts college
008_0312 states unemployment rate
008_0313 foromo ya kopo ka dikopi
008_0316 british west indies
008_0317 ho ngodisa jwalo ka setsebi
008_0318 security assistance force
008_0319 ka mora nako e itseng
008_0320 ho ba motswadi wa letholwa
008_0321 ho fafatsa kgahlanong le mahola
008_0322 ba hore khopi ya foromo
008_0323 romela ka mora nako ditlaleho
008_0324 president harry
008_0325 northern
008_0326 ntlafatsa polokeho le tshireletso ya
008_0327 atlantic
008_0329 mabapi le maemo a setjhaba
008_0330 make extensive use
008_0332 boston red sox
008_0333 lokela ho lefa lekgetho la
008_0337 batlang ho fumana boahi ba
008_0338 ofe kapa ofe wa mmuso
008_0339 clarify date february
008_0341 wa ho qala wa leloko
008_0343 kapa o tshwerwe tlasa mental
008_0344 frank lloyd wright
008_0345 wa batswadi kapa mohlokomedi wa
008_0347 ka mokgwa o hlwahlwa ho
008_0348 morao ka dilemo tse ngata
008_0349 ba ratang naha ya habo
008_0350 ho kganna ya borutehi bo
008_0352 reef
008_0353 ka puo ya kgetho ya
008_0354 palestinian national authority
008_0355 ho thola ngwana ka molao
008_0356 united nations high
008_0358 ho ya ka palohare ya
008_0361 le mekgwa e meng ya
008_0362 pakeng tsa batho ba babedi
008_0363 inshorense ya tse sebediswang mobung
008_0366 poone ya selelekela mabapi le
008_0367 early morning hours
008_0370 setsheng sa bafu sa poraefete
008_0371 kapa ho hloka bokgoni ba
008_0373 motherwell
008_0374 hang ha ho se ho
008_0376 di ka nna tsa fetoha
008_0377 ba le seabo ha basadi
008_0378 episcopal church usa
008_0379 khampani kapa khampani ya ba
008_0380 hlahisa ditabatabelo le mehopolo ya
008_0381 german air force
008_0382 grand
008_0384 wa seboka sa naha le
008_0385 kopo ya ho ngodisa khampani
008_0386 mabapi le tshireletso ya dijo
008_0387 boramesebetsi ba lokela ho saena
008_0388 boyce
008_0389 high middle ages
008_0390 tlosa pompo pele ba ilo
008_0391 kiana
008_0393 e ya weposaeteng ya lefapha
008_0395 yona ha feela le tla
008_0396 atlantic treaty organization
008_0397 random access memory
008_0399 ha o a dumellwa ho
008_0400 osama bin laden
008_0401 phahameng ya poone le mmaraka
008_0404 tlameha ho ba karolo ya
008_0407 of access to information act
008_0408 ho tshela oli e ntjha
008_0409 billy
008_0411 hong kong island
008_0412 tsa diporofensi di a nahanwa
008_0413 islamic conference oic
008_0414 ditlhaloso tsa lengolo la truste
008_0416 basebeletsi ba lefapha la ditaba
008_0417 o tshwanetse ho ela hloko
008_0418 moo e leng hore ho
008_0420 hloka bokgoni ba ho phetha
008_0421 knights grand cross
008_0422 ba badudi ba saruri ba
008_0423 ka kamano ya ho se
008_0424 balemi ba ntseng ba thuthuha
008_0428 botle le ditabatabelo tsa ditho
008_0431 kopanelo ya boitshwaro bo botle
008_0432 northern mariana islands
008_0433 ho sebedisa thaere e kgolwanyane
008_0435 merafong le temong bakeng sa
008_0438 di fetwa ka bohlwahlwa ke
008_0439 haufi tsa ntshetsopele ya setjhaba
008_0440 ke sesebediswa se sebetsang ka
008_0441 ho ntlafatsa boleng ba bophelo
008_0442 ha eba o na le
008_0446 dennilton
008_0447 e bile wa bohlokwa ho
008_0448 moahi wa afrika borwa kapa
008_0450 new york jets
008_0451 western european countries
008_0452 king james version
008_0453 american sign language
008_0456 ya makgulo bakeng sa kgwebo
008_0457 leng hore ha ho hlokehe
008_0460 ya hao ya boitsebiso kapa
008_0463 grisly
008_0464 garrick
008_0466 e ise embasing kapa misheneng
008_0467 notable examples include
008_0468 ho ya ho se seng
008_0469 di ka romelwa ofising efe
008_0471 ho mokga o laolang wa
008_0473 austrian school economists
008_0474 ya phemiti ya mosebetsi ya
008_0478 ludwig von mises
008_0479 fane ka nomoro ya akhauntu
008_0480 catherine
008_0481 bethal
008_0482 kapa badudi ba saruri ba
008_0483 ha ba hloke ho ntsha
008_0484 merero e ntlafaditsweng ya tlhahiso
008_0486 le ka baka la tshebedisano
008_0489 motho ya jwalo ha se
008_0491 san pedro sula
008_0493 hloka bokgoni ba ho nehelana
008_0494 mafelong a kgwedi e nngwe
008_0495 afidaviti eo ho entsweng kano
008_0496 united states federal
008_0497 human rights record
008_0498 jwalo ka o motjha mme
008_0499 o le moahi wa afrika
008_0500 folaga e ntle ka ho
008_0501 bonaparte
008_0503 edwin
008_0505 n g rjuna
008_0506 ya moithuti e le yona
008_0507 form hydrogen bonds
008_0508 ba lenaneo la ntshetsopele ya
008_0509 le ba nang le seabo
008_0511 mabapi le puo tsa lefapha
008_0513 ho latela dipehelo tsa molao
008_0514 united arab emirates
008_0521 day saint movement
008_0523 ka ntle eo e leng
008_0525 president woodrow wilson
008_0526 le haufi le la sars
008_0527 ya hao setatementeng sa banka
008_0528 ya tswelang pele ka mosebetsi
008_0529 e etsa bonnete ba hore
008_0530 jewish american writers
008_0532 ya nang le phemiti ya
008_0533 mohahamoriti
008_0536 lebitsong la motho e mong
008_0539 lengolo le tswang ho setho
008_0540 wayne state university
008_0543 winter olympic games
008_0545 la mokopi kapa lebitso la
008_0546 kansas state university
008_0547 nna ha etsahala hore o
008_0548 institjhute
008_0549 international financial institutions
008_0550 jwaloka ha o fetisitswe le
008_0552 ludwig von mises
008_0553 ke e nngwe ya dintlha
008_0554 eo ba nang le yona
008_0556 e leng commission for conciliation
008_0557 kapa ofe ya batlang ho
008_0558 borwa a ka ba teng
008_0559 guano islands act
008_0560 power parity comparisons
008_0561 dikgatiso tsa menwana ya mokopi
008_0562 american short story
008_0565 dutton
008_0567 lengolo la bopaki la phytosanitary
008_0569 moo o ile wa sebediswa
008_0570 john von neumann
008_0571 kopo ya ho tholwa ha
008_0572 halleck
008_0573 social democratic party
008_0574 a mmalwa ho ya dibekeng
008_0578 pope urban
008_0581 american musical theatre
008_0582 real gdp growth
008_0583 palamente ya rephaboliki ya afrika
008_0584 los angeles county
008_0585 ba dilemo tse ka hodimo
008_0586 clarify date november
008_0587 ho hloleha ho etsa jwalo
008_0588 le ona o hlokometse hore
008_0591 ebe o nka kilograma e
008_0593 ya ka maemo a amohelehileng
008_0595 north west company
008_0596 ya b di be tharo
008_0597 mtv video music
008_0598 metsi a mangata hoo tse
008_0599 atlantic slave trade
008_0600 chinese civil war
008_0601 qhamakwane
008_0602 italian roman catholics
008_0606 civil class
008_0607 received mixed reviews
008_0608 quantum field theory
008_0609 international criminal court
008_0610 essential fatty acids
008_0612 e ka nka dikgwedi tse
008_0613 central processing unit
008_0614 nakong ya matsatsi a balemi
008_0616 internal combustion engine
008_0617 missing living people
008_0618 etsa hore a kgone ho
008_0619 native american tribes
008_0620 chinese communist party
008_0621 ya afrika borwa ba dilemo
008_0622 guru granth sahib
008_0623 david
008_0624 treaty organization nato
008_0626 a se ke a kena
008_0627 dikarolong tsa yona tsa metso
008_0629 ntshetsopele ya molemi wa grain
008_0632 united states relations
008_0633 social democratic parties
008_0634 re batla ho tswela pele
008_0637 lebanese armed forces
008_0641 world trade center
008_0642 tla amohelwa jwalo ka setswantle
008_0643 batho ba bang ke ba
008_0644 education
008_0645 major political parties
008_0647 north germanic languages
008_0648 president
008_0649 ka ho nka disampole tsa
008_0650 a ka etsa kopo ya
008_0654 ridgeway
008_0655 batho ba afrika borwa bao
008_0656 wa afrika borwa ntle le
008_0658 kutu
008_0661 supreme court justice
008_0662 hore ho teng balemi ba
008_0663 la dithuto la afrika borwa
008_0664 o ka nna wa fafatsa
008_0668 badudi ba saruri ba batlang
008_0670 ho kenweng ho ona ka
008_0671 sefe kapa sefe se ka
008_0672 british west indies
008_0674 american football conference
008_0675 major league baseball
008_0677 italian roman catholics
009_0001 mabitso a bonkgetheng bakeng sa
009_0007 hore menyenyetsi e mabapi le
009_0009 moscow state university
009_0017 south asian association
009_0018 centrally planned economy
009_0019 science fiction novel
009_0020 magnetic resonance imaging
009_0022 banka
009_0023 lekgotla la ho ntshuwa ha
009_0024 nfc championship game
009_0025 le ho romela ditokomane ho
009_0026 holy hand grenade
009_0030 african
009_0032 gibbon
009_0034 o okina ahu
009_0039 tsosoloso ya boemo ba theshiari
009_0040 leng le le leng kapa
009_0041 united states
009_0042 proffesor
009_0046 history
009_0047 e tswang ho registrar of
009_0048 neelane ka kopo ya hao
009_0049 di tswela pele ho sa
009_0051 foreign direct investment
009_0052 mokgwa wa elektroniki kapa khaontareng
009_0053 bakeng sa nako ya boholo
009_0055 palestine liberation organization
009_0056 monroe
009_0057 screen actors guild
009_0060 san francisco giants
009_0062 la boemo bo hodimo la
009_0063 sam
009_0064 north germanic languages
009_0065 rala mme o romele ditokomene
009_0067 madison square garden
009_0069 bragg
009_0070 sebetsa jwalo ka borasaense ba
009_0073 army air corps
009_0075 seng le lefilwe bakeng sa
009_0078 midrand
009_0080 o motsho le o mosweu
009_0084 american film producers
009_0085 golden globe winners
009_0086 la ditaba tsa lehae hore
009_0089 united states census
009_0093 moo motho a fumanang kuno
009_0094 wa afrika borwa ya hlokahetseng
009_0097 lebelo la ho potoloha ha
009_0099 motor vehicle manufacturers
009_0100 national science foundation
009_0101 united states senate
009_0104 senqu
009_0106 tshebetso ya botsebi ba saense
009_0107 lokile pele o etsa kopo
009_0108 e nang le share capital
009_0109 moralo wa leano la puo
009_0112 ile ba hapa moputso wa
009_0113 mokgatlo o emetseng basebeletsi tumellanong
009_0114 ya tumello ya ho romela
009_0115 tse felletseng tsa moo ho
009_0116 international atomic energy
009_0117 sepolesa sa aforikaborwa e lefe
009_0118 lefapheng la kgwebo le indasteri
009_0122 new york yankees
009_0123 award winning authors
009_0124 bophelong
009_0126 feta pele hore ho na
009_0127 ho kenngwa tshebetsong ha melao
009_0128 tla kenyeletsa bonyane thuto e
009_0129 ka mokgwa o hlakileng ho
009_0130 john
009_0131 good
009_0133 be bonolo ho palama baesekele
009_0141 mang ya ka etsang kopo
009_0143 re tsebang ho sebetsa re
009_0146 southwestern united states
009_0147 ditaba tse amanang le molao
009_0148 manejara wa lebatowa a ananela
009_0150 strong nuclear force
009_0151 le ho tloswa ha matlakala
009_0152 org wiki wikipedia
009_0154 european economic area
009_0155 ka morero wa ho matlafatsa
009_0156 junior high school
009_0157 boholo ba masimo a hao
009_0158 afrika borwa ba leng mose
009_0159 durban
009_0162 tla tshwarwa ka mokgwa o
009_0164 saint john river
009_0165 red blood cells
009_0168 tse ding le tse ding
009_0169 bao e leng ditho tsa
009_0170 ha eba o hloleha ho
009_0174 american psychiatric association
009_0175 royal albert hall
009_0176 setefikeiti sa boingodiso ba koloi
009_0177 ho se ho kenwe ho
009_0178 october
009_0180 feteng dikgwedi tse tharo kapa
009_0181 bay
009_0182 court ha e le traste
009_0184 diprojeke tsa bohlokwa tsa lenaneo
009_0185 ile wa rekisetswa lefapha la
009_0186 ho tla etswa ho latela
009_0188 maseru
009_0189 o lokela ho ba motho
009_0190 o neng o rena ditherisanong
009_0192 bill
009_0193 president george
009_0194 e sebetswa letsatsing leo e
009_0195 ya mahola le dikokwanyana ka
009_0196 sehlopheng sa rona sa tshebetso
009_0197 tshebeletso ya poso e sa
009_0198 mabapi le mefuta e metle
009_0199 nako e hlokolosi e ka
009_0200 di be tharo mme o
009_0201 fifa world cup
009_0202 strategic air command
009_0203 karolong e ka tlase ya
009_0204 kapa mokgatlo wa nakwana o
009_0205 le dipehelo tse ding tse
009_0206 system
009_0207 kofi
009_0208 argentina ho ya afrika borwa
009_0209 ba bangata ba nang le
009_0210 ya thuso bakeng sa ho
009_0211 leqephe la pele la foromo
009_0212 tailor
009_0213 mme hona ho tla ya
009_0214 hodimo ho moo ba tla
009_0215 convention
009_0216 grammatical
009_0217 tsa tokisetso tsa lekgetho di
009_0218 seo o hopotseng ho se
009_0219 le eneji le la dikgwebo
009_0221 l cuin abbr
009_0222 mahareng a phato ho fihlela
009_0225 moahi wa naha ya afrika
009_0226 e nngwe ya tsona e
009_0227 golden globe film
009_0229 american jewish people
009_0233 best foreign language
009_0234 american male singers
009_0236 nelson mandela le thabo mbeki
009_0237 following world war
009_0238 pheta tshebetso ena makgetlo a
009_0239 kopo ya phemiti ya bodulo
009_0240 phethahatso ya leano lena e
009_0242 kenngwa ha jine ya bt
009_0243 ho tloha sebopehong sa kgale
009_0244 ba ka hodimo ho dilemo
009_0246 hore mobu o na le
009_0247 ntswaki
009_0251 articles including recorded
009_0252 senyesemane
009_0254 lokelang ho fetolelwa bafetoleding ba
009_0255 cathode ray tube
009_0256 ba ngodise ho south african
009_0258 buddhism
009_0260 harry
009_0262 seahelo sa ho lokisa tlhapi
009_0264 fiction television series
009_0265 peo ya ona e ka
009_0266 le o mong o na
009_0267 formal diplomatic relations
009_0268 best supporting actor
009_0270 roman catholic priests
009_0272 hore ditokomane tsa mmuso ha
009_0273 primitive recursive functions
009_0274 la ditaba tsa tikoloho le
009_0277 randburg
009_0283 poids et mesures
009_0284 numeric character references
009_0285 ho ntsha raporoto ya radiology
009_0286 north west company
009_0289 complaints
009_0292 free methodist church
009_0294 ya tshwereng thaetlele kapa monga
009_0296 ho ntse ho na le
009_0297 kgahlanong le dikgoka ho basadi
009_0298 recreation
009_0299 randfontein
009_0305 early church fathers
009_0306 recent common ancestor
009_0308 afrika borwa ha kopo e
009_0309 mabapi le tlhahiso ya koro
009_0310 ding le tse ding tse
009_0312 ka baka hore a lefiswe
009_0314 chancellorsville
009_0316 motho ka mong o tlamehile
009_0317 tswela pele ho sebetsa le
009_0319 setifikeiti sa tswalo sa afrika
009_0321 seboka sa naha le lekgotla
009_0322 high seas fleet
009_0325 supreme court ruled
009_0326 nakwana ke ho thusa balefi
009_0327 environmental protection agency
009_0332 tikoloho
009_0333 ozone layer protection
009_0334 power parity comparisons
009_0335 hlodisana le dijothollo mabapi le
009_0337 tlasa merero e hlwauweng mona
009_0338 ha eba poone e sa
009_0339 ho suthisa ka ho ya
009_0343 bilateral immunity agreement
009_0345 fact date august
009_0346 bridgeport
009_0348 moaho wa lekgotla la naha
009_0350 la afrika borwa la basebetsi
009_0354 sa witblits se neng se
009_0355 fact date march
009_0357 haholo ke moruo wa tsona
009_0358 eighty years war
009_0359 se kgethollwe ho ya ka
009_0362 motho ya tshwereng thaetlele kapa
009_0363 military coup
009_0366 hartbeespoort
009_0369 average family size
009_0370 ha eba kere e potolohisang
009_0371 la provinse kapa la naha
009_0374 tlhahiso ya poone tlasa nosetso
009_0375 banna le basadi ba na
009_0376 tshebedisano e kwetsweng e lefa
009_0381 french west africa
009_0385 nako e telele ho tiisitse
009_0386 eo re neng re e
009_0389 national football team
009_0392 ya poso e sa risefuwang
009_0393 tse ka hodimo tsa mobu
009_0395 ya rona ya puo le
009_0396 empire
009_0398 ya ho ba teng ha
009_0402 big bang model
009_0406 september
009_0408 federal trade commission
009_0409 congressional gold medal
009_0410 boqwabi
009_0411 bad
009_0414 original game boy
009_0416 new york jets
009_0418 motho a tshwerweng ho yona
009_0425 man
009_0427 electron transport chain
009_0431 e kenella tlase mobung le
009_0432 rona bo tataiswe haholo ke
009_0436 miller's
009_0438 league baseball team
009_0439 dutch east india
009_0440 law enforcement agencies
009_0441 russian civil war
009_0443 united states geological
009_0445 modern orthodox judaism
009_0446 e le kgolo ho eo
009_0447 tswa ho monga setsha seo
009_0449 ke ke wa kgona ho
009_0450 tlamehile maoto le matsoho ho
009_0452 hlahisa dijothollo di phahame haholo
009_0453 common law jurisdictions
009_0455 ha e kenyeletse hlapi ya
009_0457 tumello e ngotsweng fatshe e
009_0459 e tla fapana ka ho
009_0460 bafta winners people
009_0461 sebediswa ho laola lebelo la
009_0462 hospital
009_0465 church turing thesis
009_0466 potter's
009_0471 tlhahiso ya dijothollo mobung o
009_0473 lekgotleng la dinyewe ho tla
009_0474 human development index
009_0475 metsimaholo
009_0481 borwa e se nang morabe
009_0482 jwalo ka ha ho hlokeha
009_0483 protea
009_0484 dikarolo dife kapa dife tse
009_0485 basebeletsi ba hao le dijothollo
009_0488 madison square garden
009_0490 television shows set
009_0491 bona ba na le tokelo
009_0495 national hockey league
009_0497 internet protocol suite
009_0498 hore ba kgone ho ba
010_0001 tlwaelo e ntle ho tlosa
010_0002 re lokelang ho e tsamaya
010_0003 ho etsa tekolo e phethahetseng
010_0005 hekthara ka nngwe e ka
010_0006 greeks
010_0010 bothata ba ho teteana ha
010_0011 se ngotsweng fatshe sa ditherisano
010_0015 ho romela hlapi ho tswa
010_0016 ho raroloha kantle ha kgokahano
010_0018 god
010_0019 theunissen
010_0021 bakeng sa dilemo tse hlano
010_0022 seo e leng sa bohlokwa
010_0025 ka mokgwa wa elektroniki kapa
010_0032 ho ya lekgotleng la dinyewe
010_0034 ho sebedisa poone e le
010_0041 phuthiatsana
010_0042 tshebediso ya dipuo tse tharo
010_0044 witbank
010_0045 ba le boikarabelo ba tshebetso
010_0046 hillbrow
010_0047 le mashome a mararo tse
010_0048 mafapheng a fapaneng a temo
010_0051 palamente ya pele ya demokerasi
010_0052 selbourne
010_0054 le batho lefatsheng le fetofetohang
010_0055 na sebolayalehola se ngodisitswe ho
010_0057 dipalangwang
010_0060 tlhokomelo ya motheo ya bophelo
010_0062 population
010_0066 e nepahetseng e tlameha ho
010_0068 ho tshwasa ditlhapi eo sekepe
010_0069 tla etsa hore o kgone
010_0070 tla ba le boikarabelo ba
010_0074 ke motho ya etsang kopo
010_0075 a ile a ba teng
010_0076 lefapha la ditaba tsa naha
010_0077 botebo bo bonyane ho feta
010_0079 sebaka moo sepudutsi se ke
010_0082 tse ding di sebetsa ka
010_0087 lokelang ho fetolelwa bafetoleding ba
010_0088 ho latelwa ke mafapha a
010_0089 dibaktheria mabapi le bolwetse bo
010_0092 le ho ba le seabo
010_0093 ya authority to apply e
010_0094 charles
010_0095 ya tjhelete e kenang ya
010_0097 dipuo tsohle la afrika borwa
010_0100 beuweng ke letona ka kgothaletso
010_0103 bakeng sa ho romela hlapi
010_0104 ho teng balemi ba batsho
010_0107 parktown
010_0109 diforomo ha di fumanehe khomputeng
010_0110 hore ho sebediswe puo e
010_0112 pele ka sepheo sa ho
010_0114 ho ba tshebeletso ya lekgetho
010_0117 o nka kilograma e le
010_0121 tsa rona di lebiswa ho
010_0123 molemi e mong le e
010_0125 tshehetso ya dikgwebo tse nyenyane
010_0128 le ha e le afe
010_0130 lejwe
010_0131 pedi tsa foromo ya kopo
010_0135 batho ba batsho ikonoming ka
010_0136 agency
010_0137 dijo tsa phepo ya diphoofolo
010_0139 mayflower
010_0141 ho iteanya le masepala wa
010_0144 botle
010_0145 lengolo la bopaki la sethatho
010_0147 hore o romele polane ya
010_0156 ka nna ya teteanya mobu
010_0158 le dimela mabapi le mongobo
010_0159 o seng o ntse o
010_0160 le moruo wa tshebetso ya
010_0166 drummond's
010_0169 tokisong ya tshingwana ya peo
010_0170 o se ke wa kenya
010_0172 tla sebedisa monyetla wa bodulasetulo
010_0175 terekere le sesebediswa sa temo
010_0176 behilweng bakeng sa tshebeletso ena
010_0177 ya ho tsamaisa puo e
010_0180 kenya khoutu efe kapa efe
010_0181 laesense ya ho tsamaisa tshebeletso
010_0184 engineering
010_0186 e seng lebitso la kgwebo
010_0188 jerusalema
010_0189 tshebetso ya toka e kgahlanong
010_0190 dumellana ka puo ya tshebetso
010_0191 hammoho le tjhelete ya matsatsi
010_0192 na le bopaki bo ngotsweng
010_0193 eo mobu o leng lebatoweng
010_0195 e se e amohetswe biling
010_0196 tseo batho ba tobaneng le
010_0202 ho feta ho ya ka
010_0203 etswa ho sebedisa ditshebeletso tsa
010_0204 ya ho kenngwa tshebetsong ha
010_0207 ho ya ka mehopolo e
010_0210 ntle mofuta wa hlapi o
010_0216 itshetlehile ho nehelano e nepahetseng
010_0217 rosecrans
010_0218 nagata e baka mathata a
010_0219 ho etswa matsapa ohle ho
010_0220 e ka nna ya eketseha
010_0221 setshelo sa witblits se neng
010_0223 e leng molwanedi wa ditokelo
010_0226 bopa karolo ya bohlokwa haholo
010_0229 ho fafatsa dibolayakokwanyana hodima dimela
010_0230 o romele bopaki ba tefo
010_0231 ha re tloheleng ho reka
010_0232 wa sepikara wa seboka sa
010_0233 lenaneo la kwetliso le ntshetsopele
010_0236 basotho
010_0237 tse phahameng tsa tse sebediswang
010_0238 tshebeletso ena ke ho etsa
010_0239 hammoho le motso o moholo
010_0240 e phahameng mona afrika borwa
010_0241 tsheletseng ho isa ho tse
010_0242 baeti
010_0244 tsa botoloki ka mohala tsa
010_0247 sa tumello ya sekiri sa
010_0248 sepheo sa yona e leng
010_0251 seo di kopanang le sona
010_0252 foromo hore o e tlatse
010_0256 ho behela taelo ka thoko
010_0257 ntate wa ngwana ya tswetsweng
010_0258 moabi ya ananetsweng wa thupelo
010_0260 moremedi
010_0261 balemi ba bahwebi ba selehae
010_0263 carolina
010_0264 wa lekgetho ho etsa ditifelo
010_0265 folaga e ntle ka ho
010_0266 maqephe kapa dihlahiswa tse ding
010_0269 sunnyside
010_0270 phate
010_0271 e kenella tlase mobung le
010_0272 printer
010_0273 le matla a ho etsa
010_0274 potso e ka nna ya
010_0275 a dikhemikhale a ka nna
010_0276 id tsa mmala o motsho
010_0277 moihlwe
010_0278 baka mathata temong ya dijothollo
010_0279 ditaba tsa lehae kapa embasing
010_0280 palamente ya rona e ntjha
010_0282 grint
010_0286 jwalo ka ha ho boletswe
010_0287 ditshebeletso tseo ho fanweng ka
010_0291 township
010_0292 ka nngwe ho isa ho
010_0299 animal improvement e a hlokahala
010_0304 mofuta ona wa peo o
010_0308 louis
010_0319 setatemente se saennweng ho tswa
010_0325 palohare ya pula ya selemo
010_0326 ho efe kantoro ya sebaka
010_0328 fana ka monyetla wa ho
010_0329 tsa yona tsa metso hape
010_0331 ba ntseng ba thuthuha ke
010_0334 katoloso ya nako ya ho
010_0336 le dibaktheria mabapi le bolwetse
010_0338 tjhona ho bakilweng ke bohlaswa
010_0342 tlhahiso le thekiso ya poone
010_0345 boulders
010_0346 bo sebediswa e le mokgwa
010_0347 toba e mabapi le ditlhoko
010_0350 e ile ya ntshetswa pele
010_0351 ho fihlella selemong sa boraro
010_0359 hore ho be bonolo ho
010_0362 bulawayo
010_0363 puo le ela hloko dipehelo
010_0368 motho ofe kapa ofe kapa
010_0369 ditswantle ya bongaka ba diphoofolo
010_0371 boahi ba naha e nngwe
010_0372 dumela hore ha re sebetsa
010_0373 hao ya boitsebiso kapa setifikeiti
010_0375 ho bohlokwa ho nwa dipilisi
010_0376 ya tswang dinaheng tsa ka
010_0378 tse tlang ho dumella moithuti
010_0381 ho latelwa melao le melawana
010_0383 buke
010_0384 terekere le disebediswa tsa polasing
011_0001 sa witblits se neng se
011_0004 kontane kapa ka tjheke e
011_0005 kopi e tiiseditsweng ya bukana
011_0010 church turing thesis
011_0011 jwalo ka ha ho hlokeha
011_0014 junior high school
011_0015 bridgeport
011_0023 saint john river
011_0024 kenngwa ha jine ya bt
011_0025 military coup
011_0030 july
011_0032 ho na le mefuta e
011_0037 screen actors guild
011_0040 african
011_0041 laesense ya boditjhaba ya ho
011_0045 boholo ba masimo a hao
011_0046 fifa world cup
011_0051 hall
011_0062 convention
011_0063 senqu
011_0065 la afrika borwa la basebetsi
011_0068 l cuin abbr
011_0070 ba ka hodimo ho dilemo
011_0071 league baseball team
011_0073 law enforcement agencies
011_0078 blood
011_0080 ba ngodise ho south african
011_0082 common law jurisdictions
011_0086 ozone layer protection
011_0087 history
011_0088 holy hand grenade
011_0089 o neng o rena ditherisanong
011_0092 madison square garden
011_0094 kopo ya phemiti ya bodulo
011_0096 best supporting actor
011_0101 following world war
011_0102 san francisco giants
011_0103 palestine liberation organization
011_0104 la boemo bo hodimo la
011_0109 bill
011_0111 moscow state university
011_0115 american psychiatric association
011_0118 american male singers
011_0119 a lehodimo nakong ya tshebediso
011_0120 sapoto jwalo ka ha e
011_0121 boqwabi
011_0122 maseru
011_0123 big bang model
011_0128 early church fathers
011_0132 north germanic languages
011_0134 modern orthodox judaism
011_0135 congressional gold medal
011_0140 o ne a atisa ho
011_0145 magnetic resonance imaging
011_0149 federal trade commission
011_0151 randfontein
011_0156 argentina ho ya afrika borwa
011_0157 leng se bolelang hore ho
011_0161 monroe
011_0162 kofi
011_0163 recreation
011_0164 hore mobu o na le
011_0169 original game boy
011_0172 hospital
011_0185 baheno
011_0190 tokomane eo o batlang ho
011_0191 centrally planned economy
011_0192 ya mobu bakeng sa ntshetsopele
011_0193 ho tshwarella nako e telele
011_0195 fact date march
011_0197 miller's
011_0198 strong nuclear force
011_0200 average family size
011_0205 american film producers
011_0206 french west africa
011_0208 tsitsitseng mmusong maemong le ha
011_0210 motho ka mong o tlamehile
011_0211 chancellorsville
011_0220 united states geological
011_0221 org wiki wikipedia
011_0223 free methodist church
011_0226 hartbeespoort
011_0229 september
011_0230 united states army
011_0237 american jewish people
011_0242 states environmental protection
011_0243 tsa tokisetso tsa lekgetho di
011_0248 golden globe film
011_0262 midrand
011_0263 foreign direct investment
011_0270 ho hlokeha lengolo la tumello
011_0272 randburg
011_0279 efe kapa efe eo ho
011_0280 harry
011_0282 october
011_0283 durban
011_0289 john
011_0291 potter's
011_0293 award winning authors
011_0296 mang ya ka etsang kopo
011_0298 best foreign language
011_0301 proffesor
011_0302 sam
011_0304 e nang le share capital
011_0305 le o mong o na
011_0309 tsa lekgetho di ka phethahatswa
011_0317 terekere le disebediswa tsa polasing
011_0318 supreme court ruled
011_0320 international atomic energy
011_0322 lefapheng la kgwebo le indasteri
011_0323 dutch east india
011_0325 electron transport chain
011_0331 great lakes region
011_0336 re kopa hore o ele
011_0337 primitive recursive functions
011_0341 nuclear test ban
011_0343 ya etsang kopo ya tokomane
011_0344 leqephe la pele la foromo
011_0345 ya kopo ofising e haufi
011_0349 akhaonteng e latelang ya banka
011_0350 protea
011_0352 banna le basadi ba na
011_0354 poids et mesures
011_0356 moaho wa lekgotla la naha
011_0358 high seas fleet
011_0361 rona bo tataiswe haholo ke
011_0362 tjhelete ya hae e kenang
011_0363 united states president
011_0364 sepolesa sa aforikaborwa e lefe
011_0366 o okina ahu
011_0368 south asian association
011_0370 ya mahola le dikokwanyana ka
011_0376 system
011_0380 tsela e tla ba le
011_0381 leqephe la pele la foromo
011_0382 ozone layer protection
011_0383 mahola e tshwanetse ho etswa
011_0384 science fiction novel
011_0386 southwestern united states
011_0387 miller's
011_0390 screen actors guild
011_0393 hangata a na le metso
011_0398 strategic air command
011_0399 motho ya tshwereng thaetlele kapa
011_0408 armoured fighting vehicles
011_0414 bilateral immunity agreement
011_0419 balemi ba batjha ba ka
011_0420 van der waals
011_0421 early church fathers
011_0422 e tswang ho registrar of
011_0423 madison square garden
011_0425 hospital
011_0426 madison square garden
011_0428 red blood cells
011_0429 internet protocol suite
011_0430 gibbon
011_0436 fact date march
011_0440 citation needed april
011_0443 international atomic energy
011_0444 maseru
011_0446 argentina ho ya afrika borwa
011_0447 org wiki wikipedia
011_0449 red blood cells
011_0454 la ditaba tsa tikoloho le
011_0455 national hockey league
011_0458 boholo ba masimo a hao
011_0459 ho kenngwa tshebetsong ha melao
011_0460 motho ka mong o tlamehile
011_0462 tsosoloso ya boemo ba theshiari
011_0463 environmental protection agency
011_0468 proffesor
011_0469 ntshetsopele ya dipeo tsa oli
011_0474 cathode ray tube
011_0475 nuclear test ban
011_0489 ka ho lekola tswelopele ya
011_0495 good
011_0496 church turing thesis
011_0500 original game boy
011_0502 tshebetso ya botsebi ba saense
011_0503 pheta tshebetso ena makgetlo a
011_0504 mmalwa le traste ditho tsohle
011_0505 following world war
011_0506 empire
011_0507 nfc championship game
011_0508 ka tsela e ke keng
011_0509 new york jets
011_0510 ofisi ya lefapha le haufi
011_0511 tikoloho
011_0512 ba lakatsang ho sebetsa jwalo
011_0513 recreation
011_0514 ha puo e lahlehelwa ke
011_0515 strong nuclear force
011_0516 leng se bolelang hore ho
011_0517 tjhelete ya hae e kenang
011_0518 ding le tse ding tse
011_0519 north germanic languages
011_0520 setsi se haufi sa mesebetsi
011_0521 junior high school
011_0522 primitive recursive functions
011_0523 american film producers
011_0524 wa etsa tshebetso tsa kgwebisano
011_0525 moahi wa naha ya afrika
011_0526 ba bangata ba nang le
011_0528 congressional gold medal
011_0531 john
012_0002 motor vehicle manufacturers
012_0006 kapa hofe ho ka bang
012_0007 screen actors guild
012_0008 miller's
012_0010 bill
012_0013 good
012_0015 russian civil war
012_0017 ho kenngwa tshebetsong ha melao
012_0025 history
012_0027 nfc championship game
012_0028 united states army
012_0029 kopi e tiiseditsweng ya bukana
012_0030 north germanic languages
012_0034 saense ya tlhaho dikri diploma
012_0037 foreign direct investment
012_0038 nuclear test ban
012_0045 north west company
012_0047 tshebetso e etsang hore ho
012_0050 blood
012_0053 ya poso e sa risefuwang
012_0059 e fumaneha ka potlako weposaeteng
012_0060 junior high school
012_0061 empire
012_0062 saint john river
012_0063 supreme allied commander
012_0065 ozone layer protection
012_0066 science fiction novel
012_0073 environmental protection agency
012_0077 numeric character references
012_0081 tse ding le tse ding
012_0082 e tswang ho registrar of
012_0085 united states
012_0087 motho ka mong o tlamehile
012_0093 e leng se etsang hore
012_0094 la provinse kapa la naha
012_0096 mang ya ikemiseditseng ho nehelana
012_0101 ya pele e neng e
012_0102 united states geological
012_0104 lekgotleng la dinyewe ho tla
012_0105 ya mobu bakeng sa ntshetsopele
012_0106 court ha e le traste
012_0109 hartbeespoort
012_0112 tlhahiso ya dijothollo mobung o
012_0113 proffesor
012_0114 ditaba tse amanang le molao
012_0116 golden globe winners
012_0123 chancellorsville
012_0125 ya etsang kopo ya tokomane
012_0126 kgahlanong le dikgoka ho basadi
012_0127 federal trade commission
012_0128 nako e telele ho tiisitse
012_0129 common law jurisdictions
012_0130 armoured fighting vehicles
012_0131 cathode ray tube
012_0133 american male singers
012_0136 ha metsi pakeng tsa dikarolwana
012_0141 seng le lefilwe bakeng sa
012_0142 hore ditokomane tsa mmuso ha
012_0145 convention
012_0148 church turing thesis
012_0153 bakeng sa nako e kgutshwane
012_0154 complaints
012_0157 bridgeport
012_0158 buddhism
012_0160 tlhaho temeng ya saense ya
012_0162 new york jets
012_0167 roman catholic priests
012_0168 states environmental protection
012_0170 southwestern united states
012_0173 tse ka hodimo tsa mobu
012_0174 golden globe film
012_0175 phethahatso ya leano lena e
012_0176 moaho wa lekgotla la naha
012_0180 award winning authors
012_0181 free methodist church
012_0188 o neng o rena ditherisanong
012_0189 bafta winners people
012_0191 congressional gold medal
012_0198 tsebisa ka ho o ngolla
012_0199 ho behela taelo ka thoko
012_0200 tailor
012_0203 european economic area
012_0204 mokgwa wa elektroniki kapa khaontareng
012_0208 monroe
012_0210 fiction television series
012_0212 randfontein
012_0217 leng se bolelang hore ho
012_0219 boholo ba masimo a hao
012_0222 ya mahola le dikokwanyana ka
012_0223 tsa lekgetho di ka phethahatswa
012_0225 batlang ho etsa kopo ya
012_0228 early church fathers
012_0235 fifa world cup
012_0236 e kenella tlase mobung le
012_0237 man
012_0244 midrand
012_0250 kenngwa ha jine ya bt
012_0251 royal albert hall
012_0252 o na le diterekere le
012_0253 tsa larvae hammoho le mahe
012_0254 la ditaba tsa lehae hore
012_0255 o ne a atisa ho
012_0256 e sebetswa letsatsing leo e
012_0258 ke ke wa kgona ho
012_0261 tlhahiso ya poone le soneblomo
012_0265 sam
012_0270 harry
012_0273 ke ema ka pela lona
012_0276 nelson mandela le thabo mbeki
012_0277 o okina ahu
012_0278 united states president
012_0281 ofisi ya lefapha le haufi
012_0284 boqwabi
012_0286 strategic air command
012_0287 magnetic resonance imaging
012_0289 military coup
012_0303 van der waals
012_0309 holy hand grenade
012_0314 original game boy
012_0315 maseru
012_0317 motho a tshwerweng ho yona
012_0333 ba ngodise ho south african
012_0336 average family size
012_0340 recreation
012_0343 jwalo ka ha ho hlokeha
012_0346 dutch east india
012_0351 randburg
012_0352 television shows set
012_0356 neelane ka kopo ya hao
012_0358 sa witblits se neng se
012_0359 org wiki wikipedia
012_0360 best supporting actor
012_0363 american jewish people
012_0365 ya thuso bakeng sa ho
012_0367 hlahisa dijothollo di phahame haholo
012_0368 american film producers
012_0369 internet protocol suite
012_0370 ha eba kere e potolohisang
012_0372 gibbon
012_0375 international atomic energy
012_0377 re tsebang ho sebetsa re
012_0379 ya ho ba teng ha
012_0380 mme hona ho tla ya
012_0381 articles including recorded
012_0382 ile wa rekisetswa lefapha la
012_0384 system
012_0391 primitive recursive functions
012_0396 ya hae ntle ho lebaka
012_0403 durban
012_0406 power parity comparisons
012_0414 big bang model
012_0416 tlasa merero e hlwauweng mona
012_0418 citation needed april
012_0419 national hockey league
012_0420 strong nuclear force
012_0421 mesebetsi efe ya ho mmaraka
012_0423 lefapheng la kgwebo le indasteri
012_0427 ha re sebetsa mmoho re
012_0429 bilateral immunity agreement
012_0432 madison square garden
012_0434 leqephe la pele la foromo
012_0438 moo ho ipehilweng ka tsela
012_0440 borwa e se nang morabe
012_0442 e nang le share capital
012_0443 disebediswa tse seng di ile
012_0444 ho ntsha raporoto ya radiology
012_0445 september
012_0450 ho se ho kenwe ho
012_0453 united states census
012_0454 mang ya ka etsang kopo
012_0455 bad
012_0457 american psychiatric association
012_0458 electron transport chain
012_0462 san francisco giants
012_0463 poids et mesures
012_0464 le o mong o na
012_0466 indastering e batsi ya temo
012_0467 l cuin abbr
012_0468 dingane
012_0469 ho tholwa ha ngwana ka
012_0482 provenseng kang ho tla ba
012_0483 eo re neng re e
012_0497 potter's
012_0502 station
012_0504 united states district
012_0505 liberal arts college
013_0002 disebediswa tse seng di ile
013_0005 supreme court ruled
013_0006 boqwabi
013_0007 moscow state university
013_0010 strategic air command
013_0011 bakeng sa nako ya boholo
013_0014 nfc championship game
013_0020 le ho tempuwa ke mosebeletsi
013_0022 numeric character references
013_0025 system
013_0026 haufi le wena kapa ba
013_0027 empire
013_0028 national hockey league
013_0033 senyesemane
013_0034 power parity comparisons
013_0035 durban
013_0040 internet protocol suite
013_0042 chancellorsville
013_0044 united states census
013_0045 average family size
013_0048 feteng dikgwedi tse tharo kapa
013_0049 ha ho kgethwa dipuo tseo
013_0053 van der waals
013_0054 potter's
013_0060 motho a tshwerweng ho yona
013_0062 l cuin abbr
013_0066 saint john river
013_0084 fact date march
013_0087 valhalla
013_0092 nakwana ke ho thusa balefi
013_0093 south asian association
013_0096 military coup
013_0102 recreation
013_0103 tailor
013_0104 great lakes region
013_0108 mokgwa wa elektroniki kapa khaontareng
013_0110 mang ya ka etsang kopo
013_0113 history
013_0114 randburg
013_0118 united states president
013_0121 award winning authors
013_0124 nuclear test ban
013_0125 early church fathers
013_0128 american film producers
013_0131 best foreign language
013_0133 original game boy
013_0134 magnetic resonance imaging
013_0137 nelson mandela le thabo mbeki
013_0141 poone le dinawa tsa soya
013_0142 moo ho ipehilweng ka tsela
013_0155 ho etsa kopo ya taelo
013_0157 bilateral immunity agreement
013_0160 bill
013_0161 blood
013_0163 gibbon
013_0168 golden globe winners
013_0170 grammatical
013_0173 motor vehicle manufacturers
013_0175 mabapi le tlhahiso ya koro
013_0177 midrand
013_0178 ho ntse ho na le
013_0180 di tswela pele ho sa
013_0181 lekgotleng la dinyewe ho tla
013_0183 articles including recorded
013_0184 september
013_0188 science fiction novel
013_0202 high seas fleet
013_0203 aterese ya moo o dulang
013_0205 central
013_0208 big bang model
013_0217 seahelo sa ho lokisa tlhapi
013_0235 free methodist church
013_0237 kontane kapa ka tjheke e
013_0238 leng se bolelang hore ho
013_0240 modern orthodox judaism
013_0242 poids et mesures
013_0244 national football team
013_0246 harry
013_0248 citation needed april
013_0259 united states geological
013_0264 electron transport chain
013_0266 san francisco giants
013_0268 president george
013_0270 league baseball team
013_0271 october
013_0272 ya kopo ofising e haufi
013_0274 recent common ancestor
013_0279 convention
013_0282 screen actors guild
013_0283 hore menyenyetsi e mabapi le
013_0286 phepelo ya dijo tsa polasing
013_0287 ka mokgwa o hlakileng ho
013_0300 french west africa
013_0301 ozone layer protection
013_0303 madison square garden
013_0306 sa witblits se neng se
013_0307 efe kapa efe eo ho
013_0310 red blood cells
013_0315 holy hand grenade
013_0316 following world war
013_0325 hospital
013_0326 best supporting actor
013_0328 north germanic languages
013_0329 maano a tsona ho latela
013_0332 bridgeport
013_0334 kapa hofe ho ka bang
013_0335 fiction television series
013_0339 akhaonteng e latelang ya banka
013_0343 american psychiatric association
013_0347 formal diplomatic relations
013_0349 borwa e se nang morabe
013_0353 le ho romela ditokomane ho
013_0355 russian civil war
013_0356 national science foundation
013_0367 federal trade commission
013_0368 new york yankees
013_0369 monroe
013_0377 bafta winners people
013_0385 nako e telele ho tiisitse
013_0386 fact date august
013_0387 madison square garden
013_0388 miller's
013_0392 tsa larvae hammoho le mahe
013_0395 ho tshwarella nako e telele
013_0396 org wiki wikipedia
013_0399 church turing thesis
013_0402 sebetsa jwalo ka borasaense ba
013_0403 buddhism
013_0407 ya thuso bakeng sa ho
013_0410 united states army
013_0411 palestine liberation organization
013_0412 golden globe film
013_0415 red blood cells
013_0423 southwestern united states
013_0425 centrally planned economy
013_0426 tikoloho
013_0427 common law jurisdictions
013_0431 primitive recursive functions
013_0432 foreign direct investment
013_0437 indastering e batsi ya temo
013_0439 environmental protection agency
013_0441 ke ke wa kgona ho
013_0442 mesebetsi efe ya ho mmaraka
013_0443 royal albert hall
013_0444 television shows set
013_0447 proffesor
013_0452 cathode ray tube
013_0460 junior high school
013_0465 mang ya ikemiseditseng ho nehelana
013_0466 complaints
013_0475 fifa world cup
013_0477 kenngwa ha jine ya bt
013_0479 randfontein
013_0486 baka mathata temong ya dijothollo
013_0488 international atomic energy
013_0496 islamic conference oic
013_0501 sebediswang wa ho phethola mobu
013_0504 united states district
013_0509 nebula award winning
013_0510 billy
013_0513 national baseball hall
013_0524 science fiction hall
013_0526 liberal arts college
014_0006 pro football hall
014_0007 ice hockey team
014_0014 e ise embasing kapa misheneng
014_0015 di fetwa ka bohlwahlwa ke
014_0022 europe music
014_0024 wa batswadi kapa mohlokomedi wa
014_0029 ba bolaodi ba bophelo bo
014_0035 international astronomical union
014_0040 re tla tswela pele ka
014_0041 ho sebedisa thaere e kgolwanyane
014_0044 sexually transmitted diseases
014_0048 imperial japanese navy
014_0049 petroleum exporting countries
014_0052 nakong ya dikgwedi tsa hlabula
014_0053 war political
014_0055 theko ya sehlahiswa le bongata
014_0058 boyce
014_0062 high middle ages
014_0063 average life expectancy
014_0065 billy
014_0071 la nakwana le lokelwang ho
014_0075 pele ho ka jalwa sejothollo
014_0078 united states declaration
014_0080 atlantic treaty organization
014_0082 american free trade
014_0083 national public radio
014_0085 management
014_0086 le ngodisitsweng mona afrika borwa
014_0089 liberal arts college
014_0090 le hore re kgone ho
014_0091 frank lloyd wright
014_0092 dilemong tse ngata tse fetileng
014_0093 national baseball hall
014_0094 saense ya lekgotleng la molao
014_0095 roodepoort
014_0096 ho thehwa ha diyuniti tsa
014_0100 temeng ya saense ya lekgotleng
014_0102 aterese le nomoro ya mohala
014_0105 rapid economic growth
014_0109 fane ka nomoro ya akhauntu
014_0110 pimville
014_0112 hubble space telescope
014_0113 palestinian national authority
014_0114 ikopanye le ofisi ya lefapha
014_0115 tse ka hodimo ho tse
014_0116 batshwaruwa
014_0121 e bile wa bohlokwa ho
014_0123 ferry
014_0124 itseng ntle le ho ama
014_0126 northern
014_0129 bethal
014_0133 le hore ho tle ho
014_0134 atlantic
014_0135 video game developers
014_0137 le nngwe feela afrika borwa
014_0138 jwalo ka ha ho bontshitswe
014_0139 early morning hours
014_0143 dennilton
014_0145 inshorense ya tse sebediswang mobung
014_0147 e ne e le sebaka
014_0153 wa setjhaba lawrence mushwana o
014_0155 islamic conference oic
014_0157 nobel prize winners
014_0158 british foreign secretary
014_0161 tsa palamente di tlameha ho
014_0165 francisco bay area
014_0170 tlosa pompo pele ba ilo
014_0171 united states district
014_0172 boston red sox
014_0173 ofe kapa ofe wa mmuso
014_0175 dubious date april
014_0176 president harry
014_0178 rephaboliki
014_0179 dikgopo tsa mahlaku hloohong ya
014_0187 tshwaneleha le moruo wa tshebetso
014_0188 samuel's
014_0190 ford motor company
014_0191 pakeng tsa batho ba babedi
014_0194 dikgeong tsa mesebetsi ya sehlopha
014_0195 kopo ya bodulo ba saruri
014_0196 roman catholic archbishops
014_0198 nang le tokelo ya ho
014_0201 ya naha e tshwereng motho
014_0202 western united states
014_0203 o nka kilograma e le
014_0204 republican party united
014_0205 fact date january
014_0207 rona ba ho lwantsha botlokotsebe
014_0208 european union member
014_0212 ya ditaba tsa lehae kapa
014_0213 garrick
014_0214 kenya tshebetsong mokgwa wa ho
014_0216 mokopi le mohatsa hae ba
014_0222 mahola ke sera sa pele
014_0226 sound
014_0229 united states air
014_0232 united states navy
014_0234 meade
014_0235 memphis
014_0236 khopi e netefaditsweng ya bukana
014_0237 ha o a dumellwa ho
014_0241 moo e leng hore ho
014_0243 black sea coast
014_0245 old garden roses
014_0246 mekgatlo e adimanang ka tjhelete
014_0248 hloleha ho etsa jwalo ho
014_0249 valence bond theory
014_0250 leondale
014_0251 petroleum exporting countries
014_0252 boafrika borwa ba rona bo
014_0254 dipalopalo
014_0258 close air support
014_0266 ha eba poone e iswa
014_0271 london
014_0272 tsa diporofensi di a nahanwa
014_0274 afrika borwa jwalo ka ha
014_0278 german air force
014_0282 king james version
014_0283 ho tswela pele ho ya
014_0291 transvala
014_0297 professional american football
014_0298 austrian school economists
014_0299 ditletlebo
014_0301 northern mariana islands
014_0304 george
014_0306 phetoho efe kapa efe e
014_0308 ya hao e tla lekolwa
014_0309 american political writers
014_0311 major professional sports
014_0312 ho feta ka moo ho
014_0314 ho ngodisa setsi sa tlhahlobo
014_0318 hong kong island
014_0320 le kgahleho bophelong ba motletlebi
014_0321 kopanelo ya boitshwaro bo botle
014_0322 ba thupelo ba lokela ho
014_0323 dikokwanyana ka thibelo ya mefuta
014_0325 asian financial crisis
014_0326 ancient near east
014_0328 ba puo e tla hloka
014_0330 box office success
014_0331 ho bohlokwa ka ho fetisisa
014_0338 notable examples include
014_0339 ba badudi ba saruri ba
014_0343 polasi le nang le boleng
014_0345 clarify date march
014_0351 kapa badudi ba saruri ba
014_0356 ditlhaloso tsa lengolo la truste
014_0359 dintho ka mokgwa o sa
014_0363 new york jets
014_0364 morao ka dilemo tse ngata
014_0366 ho itsebisa jwalo ka ntate
014_0367 pope benedict
014_0368 osama bin laden
014_0369 efe kapa efe ya yona
014_0370 eldorado
014_0374 billion years ago
014_0378 kopo ya ho ngodisa khampani
014_0383 nebula award winning
014_0384 ho kganna ya borutehi bo
014_0386 letowana
014_0387 functional programming languages
014_0392 ya south african revenue service
014_0395 ludwig von mises
014_0396 united states government
014_0397 ho tshela oli e ntjha
014_0400 army occupied cypriot
014_0402 hard disk drive
014_0404 united states dollar
014_0406 comic book series
014_0411 kansas city royals
014_0412 persian gulf states
014_0415 mmala o motsho le bosweu
014_0416 california state university
014_0417 leng hore ha ho hlokehe
014_0419 ho tla nne ho dule
014_0421 ho ngodisa khampani e poraefete
014_0422 cognitive behavioral therapy
014_0423 aung san suu
014_0424 e na le dimojule tse
014_0425 tlhekelo
014_0427 grisly
014_0428 marcel
014_0431 masimo a mang le a
014_0432 phahameng ya poone le mmaraka
014_0433 american sign language
014_0435 open source initiative
014_0436 ba ratang naha ya habo
014_0439 clarify date february
014_0440 re tla dula re ntse
014_0442 tone ka nngwe ho tsamaisa
014_0445 kopo ya hao e se
014_0448 ba hore khopi ya foromo
014_0450 ho ngodisa jwalo ka setsebi
014_0451 ya ngodiso e sa kgutlisweng
014_0453 hlalositsweng bakeng sa ditjhelete tse
014_0454 sa ntsaneng a le manyane
014_0458 ka mokgwa o hlwahlwa ho
014_0459 american television actors
014_0465 motherwell
014_0466 bo botjha le ho sebedisa
014_0470 puo ya bajete le setatemente
014_0471 khopi ya rasiti e saennweng
014_0474 positive real numbers
014_0475 south sandwich islands
014_0478 american voice actors
014_0479 melbourne football club
014_0483 ho sebedisa lebitso le molaong
014_0486 tiisitse hore ha ho hlwahlwa
014_0487 american nobel laureates
014_0488 western european countries
014_0489 of access to information act
014_0490 thibelang lefu ka mora ketsahalo
014_0494 ludwig von mises
014_0495 american musical theatre
014_0498 guru granth sahib
014_0499 ya seteraeke kapa ho notlellwa
014_0503 e ka nka dikgwedi tse
014_0504 essential fatty acids
014_0505 mong le e mong ya
014_0508 american short story
014_0511 john von neumann
014_0512 ya nang le phemiti ya
014_0513 kapa ofe ya batlang ho
014_0514 hore ditho tsa palamente di
014_0515 clarify date november
014_0517 ya hao setatementeng sa banka
014_0518 winter olympic games
015_0003 e tiiseditsweng ha ditokomane di
015_0013 rapid economic growth
015_0019 old garden roses
015_0025 imperial japanese navy
015_0027 german air force
015_0029 national public radio
015_0035 army occupied cypriot
015_0039 state university alumni
015_0044 austrian school economists
015_0045 catherine
015_0046 ya hao e tla lekolwa
015_0055 united states began
015_0056 war political
015_0057 high middle ages
015_0060 baemedi ba porofensi ho ncop
015_0062 king james version
015_0066 dilemong tse ngata tse fetileng
015_0076 atlantic
015_0080 box office success
015_0083 kgothalletswa ho ithuta dipuo tse
015_0094 ho ngodisa setsi sa tlhahlobo
015_0096 hloleha ho etsa jwalo ho
015_0097 notable examples include
015_0104 professional american football
015_0107 states district court
015_0111 ludwig von mises
015_0114 british west indies
015_0115 europe music
015_0117 international astronomical union
015_0120 ho fana ka beile le
015_0121 persian gulf states
015_0123 park
015_0131 aung san suu
015_0133 ford motor company
015_0136 animated television series
015_0141 royal dutch shell
015_0142 larry
015_0154 tsa fuwa maemo a tlase
015_0156 billion years ago
015_0158 moralo wa tshebetso wa naha
015_0159 ya naha le ya matjhaba
015_0161 meade
015_0162 new york jets
015_0163 president harry
015_0164 hloka tumello e ikgethang e
015_0165 music awards winners
015_0166 pele ho ka jalwa sejothollo
015_0168 ofisi ya iss ya afrika
015_0169 close air support
015_0172 frank lloyd wright
015_0174 functional programming languages
015_0178 melbourne football club
015_0184 e ya weposaeteng ya lefapha
015_0187 palestinian national authority
015_0188 sexually transmitted diseases
015_0190 dilemong tse mmalwa tse fetileng
015_0191 dubious date april
015_0192 ba thupelo ba lokela ho
015_0193 tsa tlhahlobo tse molaong mme
015_0196 islamic conference oic
015_0197 major professional sports
015_0198 ho thola ngwana ka molao
015_0199 etsa kopo bakeng sa phemiti
015_0201 thibelang lefu ka mora ketsahalo
015_0202 sa silafatsa phepelo ya metsi
015_0204 grisly
015_0206 tshenyo e kgolo dimeleng tse
015_0207 ya dipuo tsa motswalla tse
015_0208 a sa siya wili e
015_0209 average life expectancy
015_0210 jwalo ka ha ho bontshitswe
015_0211 ditletlebo
015_0212 wa provinse ya bophelo bo
015_0214 tse ikgethileng tsa kgatello di
015_0217 mabapi le tshireletso ya dijo
015_0218 khopi e netefaditsweng ya bukana
015_0220 ditlhaloso tsa lengolo la truste
015_0221 ho bohlokwa ka ho fetisisa
015_0224 sekgahla sa ho mela ha
015_0226 california state university
015_0227 matsatsi a leshome eo ka
015_0230 ke notary public kapa mokhomishenara
015_0232 ka kamano ya ho se
015_0233 basebeletsi ba lefapha la ditaba
015_0235 african unity oau
015_0236 morao ka dilemo tse ngata
015_0237 national baseball hall
015_0239 hard disk drive
015_0240 sa ntsaneng a le manyane
015_0241 ho tswa ho moabi ya
015_0242 ya hao ya boitsebiso kapa
015_0243 make extensive use
015_0244 a ka nna a fafatswa
015_0247 liberal arts college
015_0249 phetoho efe kapa efe e
015_0250 temeng ya saense ya lekgotleng
015_0251 random access memory
015_0252 lefatshe la polasi le nang
015_0253 tswela pele ka lenaneo la
015_0254 security assistance force
015_0255 diporofensi di a nahanwa boemong
015_0256 ya tse romellwang ka ntle
015_0257 pakeng tsa batho ba babedi
015_0258 hong kong island
015_0259 game boy advance
015_0260 rephaboliki
015_0261 pope benedict
015_0262 di ka nna tsa fetoha
015_0264 ntlafatsa polokeho le tshireletso ya
015_0265 black sea coast
015_0266 kenya tshebetsong mokgwa wa ho
015_0267 united states air
015_0268 batlang ho fumana boahi ba
015_0269 e ne e le sebaka
015_0270 tumellano ya nakwana le seng
015_0271 ka hara naha ya afrika
015_0272 mane ho isa ho a
015_0273 tlameha ho balwa ka botebo
015_0274 sebaka moo sepudutsi se ke
015_0276 poone ya selelekela mabapi le
015_0277 western united states
015_0279 ka puo ya kgetho ya
015_0282 early morning hours
015_0284 semmuso ya lekgetho e ka
015_0289 tlameha ho ba karolo ya
015_0292 puo ya bajete le setatemente
015_0294 ke boikarabelo ba moahi e
015_0295 dikgeong tsa mesebetsi ya sehlopha
015_0298 ho tshela oli e ntjha
015_0299 british foreign secretary
015_0300 ho kenyelletswa le ditaba tse
015_0305 metsi a ka nnang a
015_0306 tshebediso e phahameng ya sesebediswa
015_0307 ya ba mmalwa e ngodisitsweng
015_0308 atlantic treaty organization
015_0309 asian financial crisis
015_0310 tsamaiso ya sehlopha sa boithuto
015_0311 clarify date february
015_0312 northern
015_0314 sena se ka qetella ka
015_0319 european union member
015_0321 tsa theko ya sehlahiswa le
015_0323 kgannelang tlhaselong e eketsehang ya
015_0325 roman catholic archbishops
015_0326 ya ditaba tsa lehae kapa
015_0327 pimville
015_0328 ancient near east
015_0329 a hlahisa dikgwebo tsa tsona
015_0330 ke wa qobella molemi ho
015_0331 south
015_0332 inshorense ya tse sebediswang mobung
015_0333 ha o a dumellwa ho
015_0334 osama bin laden
015_0335 memphis
015_0336 american voice actors
015_0338 petroleum exporting countries
015_0339 episcopal church usa
015_0342 nobel prize winners
015_0343 ho feta ka moo ho
015_0346 american television actors
015_0347 american musical theatre
015_0351 bethal
015_0352 american free trade
015_0353 united states navy
015_0355 eldorado
015_0356 dennilton
015_0358 science fiction hall
015_0360 transvala
015_0361 video game developers
015_0366 tsa diporofensi di a nahanwa
015_0370 mang le a mang a
015_0371 ya south african revenue service
015_0374 tse tshwanetseng ho elwa hloko
015_0377 united states district
015_0378 ya makgulo bakeng sa kgwebo
015_0379 ya bt papisong le mekgwa
015_0380 francisco bay area
015_0386 knights grand cross
015_0388 samuel's
015_0398 hauhelele
015_0399 london
015_0401 borwa di tlameha ho ngodiswa
015_0406 positive real numbers
015_0410 roodepoort
015_0417 foromo ya kopo ka dikopi
015_0418 ena ka sepheo sa ho
015_0428 ena ke e nngwe ya
015_0431 western european countries
015_0435 gcis e ka fana ka
015_0438 sa moralo wa puo ho
015_0443 united states declaration
015_0445 american political writers
015_0446 kansas city royals
015_0448 islamic conference oic
015_0449 o nka kilograma e le
015_0456 aterese le nomoro ya mohala
015_0457 republican party united
015_0459 cognitive behavioral therapy
015_0461 religious
015_0462 of access to information act
015_0463 monetary fund imf
015_0464 hlahisa ditabatabelo le mehopolo ya
015_0466 le moemedi wa afrika borwa
015_0467 george
015_0468 latela dipehelo tsa molao wa
015_0469 le kgahleho bophelong ba motletlebi
016_0001 ho fana ka beile le
016_0002 american sign language
016_0003 extension
016_0005 islamic conference oic
016_0007 united states began
016_0009 state university alumni
016_0015 ho etsa diteko tsa hiv
016_0016 old garden roses
016_0020 khopi ya rasiti e saennweng
016_0024 afidaviti eo ho entsweng kano
016_0025 haufi tsa ntshetsopele ya setjhaba
016_0027 nang le tokelo ya ho
016_0028 south sandwich islands
016_0030 osama bin laden
016_0034 e poraefete ya ho fihlella
016_0036 imperial japanese navy
016_0037 nyetseng nyetsweng eo mohatsae e
016_0038 ferry
016_0039 kgothalletswa ho ithuta dipuo tse
016_0040 old east norse
016_0041 nna tsa kgannela tshenyong e
016_0042 hore ditho tsa palamente di
016_0048 ya dipuo tsa motswalla tse
016_0050 europe music
016_0053 sehla se hlahlamang sa ho
016_0060 united states government
016_0062 le hore re kgone ho
016_0063 western united states
016_0064 ke wa qobella molemi ho
016_0065 le ho haha setjhaba sa
016_0066 tlameha ho felehetsa kopo ka
016_0067 republican party united
016_0069 fihlwang ho yona ya mohlahisi
016_0070 ya hao setatementeng sa banka
016_0071 ya south african revenue service
016_0072 semmuso ya lekgetho e ka
016_0073 union member states
016_0074 american science fiction
016_0075 asian financial crisis
016_0080 leo mobu o leng ho
016_0084 united states declaration
016_0088 ho thola ngwana ka molao
016_0089 tse ding tsa dintho tseo
016_0091 catherine
016_0092 london
016_0093 basebeletsi ba lefapha la ditaba
016_0095 weposaeteng ya lefapha la temo
016_0097 atlantic treaty organization
016_0101 inshorense ya tse sebediswang mobung
016_0102 ofisi ya iss ya afrika
016_0106 functional programming languages
016_0107 tiisitse hore ha ho hlwahlwa
016_0109 grand
016_0110 wa ho qala wa leloko
016_0113 human rights record
016_0117 rapid economic growth
016_0122 united states navy
016_0123 hubble space telescope
016_0124 ho bohlokwa ka ho fetisisa
016_0125 tlameha ho balwa ka botebo
016_0127 ho phetholwa ha pele ha
016_0129 ba bolaodi ba bophelo bo
016_0130 test ban treaty
016_0132 moo o ile wa sebediswa
016_0134 ho ngodisa khampani e poraefete
016_0135 kiana
016_0137 tlhakiso ya mahlale a puo
016_0138 melbourne football club
016_0139 john von neumann
016_0140 ho sebedisa thaere e kgolwanyane
016_0141 tsa tlhahlobo tse molaong mme
016_0143 a dintwa tsa ka malapeng
016_0145 northern
016_0146 nobel prize winners
016_0148 tsa diporofensi di a nahanwa
016_0149 american television actors
016_0151 jwalo ka ha ho bontshitswe
016_0152 kenya tshebetsong mokgwa wa ho
016_0153 ka puo la afrika borwa
016_0154 guru granth sahib
016_0155 new york jets
016_0156 mokga oo a etsang kopo
016_0159 dilemong tse ngata tse fetileng
016_0162 bang ba tlosa pompo pele
016_0169 e ise embasing kapa misheneng
016_0170 phemiti ya ditswantle ya bongaka
016_0174 tshebetso tsa lekgetho la kuno
016_0176 european union member
016_0177 ho balwa ka botebo le
016_0178 dilemong tse mmalwa tse fetileng
016_0179 aterese le nomoro ya mohala
016_0180 khopi e netefaditsweng ya bukana
016_0185 dife kapa dife tse amanang
016_0186 boramesebetsi ba lokela ho saena
016_0188 motheo
016_0192 george
016_0193 american musical theatre
016_0195 close air support
016_0196 eo ba nang le yona
016_0197 american nobel laureates
016_0198 hloka bokgoni ba ho nehelana
016_0199 frank lloyd wright
016_0202 e leng commission for conciliation
016_0204 british foreign secretary
016_0207 essential fatty acids
016_0210 ho itsebisa jwalo ka ntate
016_0215 tsa palamente di tlameha ho
016_0216 kapa ofe ya batlang ho
016_0217 positive real numbers
016_0218 moahi wa afrika borwa kapa
016_0219 moo e leng hore ho
016_0220 ba mmalwa le traste ditho
016_0221 dipalopalo
016_0222 bethal
016_0225 tswa dinaheng tsa ka ntle
016_0226 black sea coast
016_0227 notable examples include
016_0228 ho ngodisa setsi sa tlhahlobo
016_0231 francisco bay area
016_0234 morao ka dilemo tse ngata
016_0236 keketseho ya boleng ba masimo
016_0238 sound
016_0242 management
016_0244 hloleha ho etsa jwalo ho
016_0246 hard disk drive
016_0247 sefe sa tlhahlobo ya laesense
016_0248 united states air
016_0250 sa moralo wa puo ho
016_0251 sexually transmitted diseases
016_0253 pro football hall
016_0254 states unemployment rate
016_0258 ba dilemo tse ka hodimo
016_0260 united states dollar
016_0261 episcopal church usa
016_0262 states district court
016_0263 wayne state university
016_0264 kuno e phahameng ya dijothollo
016_0265 ya naha e tshwereng motho
016_0268 northern mariana islands
016_0269 music awards winners
016_0270 sa silafatsa phepelo ya metsi
016_0271 samuel's
016_0272 le ngodisitsweng mona afrika borwa
016_0274 ludwig von mises
016_0276 ho kganna ya borutehi bo
016_0277 ho feta ka moo ho
016_0280 ho ya ka dipehelo tsa
016_0281 clarify date november
016_0283 video game developers
016_0284 di fetwa ka bohlwahlwa ke
016_0286 national public radio
016_0288 nka matsatsi a fihlang ho
016_0289 institjhute
016_0291 religious
016_0293 puo ya bajete le setatemente
016_0294 comic book series
016_0295 hauhelele
016_0296 pimville
016_0301 game boy advance
016_0302 kopo e tlameha ho felehetswa
016_0303 ya bt papisong le mekgwa
016_0304 itseng ntle le ho ama
016_0305 internal combustion engine
016_0306 ya sebolayakokwanyana seo o se
016_0307 tse ntjha tsa ho banka
016_0310 ke mohlodi wa bohlokwa wa
016_0314 ke boikarabelo ba moahi e
016_0316 fane ka nomoro ya akhauntu
016_0320 di ka qojwang ka teng
016_0321 chinese civil war
016_0322 molaotheo wa afrika borwa o
016_0323 setsheng sa bafu sa poraefete
016_0325 ditlhaloso tsa lengolo la truste
016_0326 united nations high
016_0327 ya hao ya taelo ya
016_0328 memphis
016_0330 ka mora nako e itseng
016_0333 tsamaiso ya sehlopha sa boithuto
016_0334 motherwell
016_0337 king james version
016_0338 ha ho ne ho ena
016_0339 winter olympic games
016_0340 ya ba mmalwa e ngodisitsweng
016_0342 african unity oau
016_0344 halleck
016_0345 ka potlako ka ho ya
016_0348 american musical theatre
016_0349 ancient near east
016_0351 ya tlhahisoleseding tshebetsong ya toka
016_0353 lengolo la tumello haeba o
016_0354 western united states
016_0358 hong kong island
016_0359 security assistance force
016_0360 bahwebi ba sa sebedise tlwaelo
016_0362 fact date january
016_0364 ikemetseng
016_0368 e ya weposaeteng ya lefapha
016_0369 american short story
016_0370 marcel
016_0372 pope benedict
016_0374 mananeo a mmuso a ho
016_0375 real gdp growth
016_0376 malwetse a pustule a bakwang
016_0378 ludwig von mises
016_0379 american voice actors
016_0380 arizona state university
016_0382 dennilton
016_0383 ya makgulo bakeng sa kgwebo
016_0384 major professional sports
016_0385 of access to information act
016_0386 le nngwe feela afrika borwa
016_0388 ka hara lekgotla la naha
016_0392 le tsela e telele eo
016_0393 tse lokelang ho ba ka
016_0398 o nka kilograma e le
016_0399 phasepoto ya hao ya afrika
016_0400 atlantic slave trade
016_0401 bo botjha le ho sebedisa
016_0404 roodepoort
016_0406 ho fafatsa kgahlanong le mahola
016_0407 ho tshela oli e ntjha
016_0408 box office success
016_0409 pele ho ka jalwa sejothollo
016_0411 ka hara naha ya afrika
016_0412 roman catholic archbishops
016_0413 grisly
016_0415 le mekgwa e meng ya
016_0416 california state university
016_0417 sekgahla sa ho mela ha
016_0418 jewish american writers
016_0419 ho ba motswadi wa letholwa
016_0420 clarify date march
016_0422 diporofensi di a nahanwa boemong
016_0425 lejwe
016_0426 kansas city royals
016_0427 e batlang e le ntle
016_0428 leano le ona o hlokometse
016_0432 tlhahisoleseding e fumanwe bukaneng ya
016_0433 kansas state university
016_0434 international astronomical union
016_0435 war political
016_0436 ho hloleha ho etsa jwalo
016_0440 e ne e le sebaka
016_0442 eldorado
016_0443 di ka nna tsa fetoha
016_0445 park
016_0446 batlang ho fumana boahi ba
016_0448 early morning hours
016_0451 social democratic party
016_0452 ho bonahala eka ha ho
016_0453 palestinian national authority
016_0454 president harry
016_0455 ya ho ba teng ho
016_0456 ka baka la sephetho se
016_0460 letowana
016_0461 ho kenyelletswa le ditaba tse
016_0462 make extensive use
016_0463 tse ikgethileng tsa kgatello di
016_0465 persian gulf states
016_0466 average life expectancy
016_0468 le kgahleho bophelong ba motletlebi
016_0469 ba puo e tla hloka
016_0470 pakeng tsa batho ba babedi
016_0471 tlameha ho ba karolo ya
016_0472 chinese communist party
016_0473 billion years ago
016_0475 e bile wa bohlokwa ho
016_0478 dubious date april
016_0479 high middle ages
016_0480 dintlha dife kapa dife tse
016_0481 le tumello e ngotsweng fatshe
016_0485 form hydrogen bonds
016_0487 international criminal court
016_0488 cognitive behavioral therapy
016_0491 hloka bokgoni ba ho phetha
016_0492 treaty organization nato
016_0493 etsa diketso tse hlabisang dihlong
016_0494 ya beke le beke ya
016_0495 ditokomane tse latelang tse tshehetsang
016_0496 terekere le disebediswa tsa temo
016_0497 missing living people
016_0498 lokela ho tlatswa ke bajalefa
016_0499 received mixed reviews
016_0500 palamente ya rephaboliki ya afrika
016_0501 native american tribes
016_0502 lengolo la bopaki la phytosanitary
016_0503 guano islands act
016_0505 ya tswelang pele ka mosebetsi
016_0506 tlameha ho tlatswa ke mokopi
016_0508 a mmalwa ho ya dibekeng
016_0509 central processing unit
016_0512 united states federal
016_0513 david
016_0514 le ona o hlokometse hore
016_0515 nka nako e telele ho
016_0517 united arab emirates
016_0519 thuto ya kalafo ya tsa
016_0524 ba lenaneo la ntshetsopele ya
017_0003 mohale
017_0008 ditho tsa setjhaba di ka
017_0009 tse latelang di tshwanetse ho
017_0010 kimberley
017_0011 canada e simollang mahareng a
017_0012 ho south african revenue service
017_0013 dumela hore ha re sebetsa
017_0018 mimosa
017_0020 ho molemo ho feta ho
017_0021 ho ngodisa bakeng sa vat
017_0023 san
017_0027 bulawayo
017_0029 e mabapi le puo ya
017_0030 feberu e tshehla e tletseng
017_0031 ha eba di sa sebediswe
017_0035 re tle re kgone ho
017_0039 hara naha ya afrika borwa
017_0041 phumantsho ya ditshebeletso tsa mahala
017_0042 willows
017_0043 buke
017_0045 ho bohlokwa ho nwa dipilisi
017_0046 diinstitushene tse ngata tse fapaneng
017_0047 nang le boiphihlelo bo bonyane
017_0048 haeba bonkgetheng ba feta palo
017_0049 europe
017_0054 ena di tshwanetse ho nahanwa
017_0061 hantle kelellong kapa o ferekane
017_0062 ba le seabo ha basadi
017_0065 ho latelwa melao le melawana
017_0066 pedi tsa boholo ba dinepe
017_0068 puo tsa afrika ka botsona
017_0072 di ka nka dibeke tse
017_0073 sa nyalang nyalwang kapa ya
017_0078 tlameha ho felehetsa kopo ka
017_0079 le tshenyo e ka bakwang
017_0083 dibakeng tse nang le difasilithi
017_0084 ditlhaloso tsa lengolo la truste
017_0091 rephaboloki
017_0092 bo botle sa bongaka ba
017_0096 bao o ka iteanyang le
017_0098 boikgathollo le dipapadi hammoho le
017_0100 energy
017_0105 latela palo ya dikopo tse
017_0106 hao ya boitsebiso kapa setifikeiti
017_0107 tsa ntlo ya seboka ya
017_0108 diporofensi di a nahanwa boemong
017_0109 moo ho ipehilweng ka tsela
017_0110 e tiiseditsweng ha ditokomane di
017_0112 sephetho sa kopo ya hao
017_0114 boahi ba naha e nngwe
017_0116 poelano le bonamodi e leng
017_0118 ho se na maemo a
017_0121 mabapi le kadimo ya tjhelete
017_0124 hore ho be bonolo ho
017_0125 sebokonyana se ntseng se hola
017_0126 ba naha ya habo rona
017_0130 melbourne
017_0131 o nepahetseng nakong ya matsatsi
017_0132 conventions
017_0135 bo sebediswa e le mokgwa
017_0136 second
017_0137 ditswantle le diphahlo tse romelwang
017_0141 thuso ya bophelo bo botle
017_0142 mekgwa ya sejwalejwale ya taolo
017_0144 bakeng la dikgokahano tsa semolao
017_0147 le hore re kgone ho
017_0148 ho fihlella selemong sa boraro
017_0150 tshwanetse ho lefella tshebediso ya
017_0152 motheo o hatella hore dipuo
017_0153 phethahatso ya leano lena e
017_0155 thibelang lefu ka mora ketsahalo
017_0158 romela hlapi ho tswa ntle
017_0163 di tshwanetse hore di se
017_0166 le letjha la ditaba tsa
017_0167 netefatsa hore melemo ya kgolo
017_0169 moaho wa seboka sa naha
017_0171 tjhona ho bakilweng ke bohlaswa
017_0172 leshome eo ka yona dikutu
017_0173 bohle re tla dumellana ka
017_0174 batlang e le ntle e
017_0175 naples
017_0176 le basebeletsi ba lefapha la
017_0177 ka ho fetisisa ke sa
017_0178 leboa
017_0180 ho tshwanetswe hore ho hokelwe
017_0181 ba sebedisang matsoho ho buwa
017_0182 e ile ya ntshetswa pele
017_0183 ya tswang naheng ya ka
017_0185 pehelo ya hore e tla
017_0186 tshwerwe tlasa mental health act
017_0188 diforomo tsa kopo di fumaneha
017_0191 le dibaktheria mabapi le bolwetse
017_0196 botle bakeng sa maaforika borwa
017_0199 o ngodiswe rejistareng ya baahi
017_0205 peo ya ona e ka
017_0206 motlatsi wa mopresidente wa riphaboliki
017_0208 le tshebetso e le nngwe
017_0210 re bo phetseng le meetlo
017_0212 ho kgothaletsa tshebetso ya botsebi
017_0213 foromo ena e fuwe motho
017_0216 moo ntate wa hae a
017_0217 molaotheo wa rephaboliki ya afrika
017_0218 ya dipuo tsa afrika borwa
017_0222 lebaka ke hore maemo a
017_0225 seo o leng ho sona
017_0230 hore setjhaba se lekole ditaba
017_0233 cacadu
017_0234 ke dintho tse tshwanetseng ho
017_0236 seteraeke kapa ho notlellwa ka
017_0239 ya dilemo tse tharo ho
017_0241 boitshwaro ya bahlanka ba setjhaba
017_0242 nka mehato mabapi le motlatsi
017_0243 dihlopha tse tinngweng meyetla ho
017_0245 ya lekgetho la ho qala
017_0246 ho tlala ho feta tekano
017_0248 jwalo ka o motjha mme
017_0249 mdda
017_0251 tse tlang ho dumella moithuti
017_0253 jwalo ka ha e le
017_0254 terekere le disebediswa tsa polasing
017_0255 ba ne ba atisa ho
017_0256 khoutu e poraefete ya ho
017_0261 thero ya puo e tsepame
017_0263 leeba
017_0264 sebakeng seo ho sona disebediswa
017_0267 ho thibela le ho lwantsha
017_0268 bakeng la tsebo ya mosebetsi
017_0269 puo le ela hloko dipehelo
017_0270 ba ntseng ba thuthuha ke
017_0271 kopo ya katoloso ya nako
017_0274 bolaodi bo ka bonang e
017_0275 le hlalosang hore ke ka
017_0276 zimmermann
017_0279 dife kapa dife tse dumelletsweng
017_0280 ho di sheba nakong ya
017_0281 le teng setjhabeng moo dipuo
017_0282 ka baka leo o ka
017_0284 mabapi le phethahatso ya leano
017_0285 lefapha la bophelo bo botle
017_0287 halleck
017_0291 sebediswa iteanye le rona link
017_0294 jwaloka ha ho hlakisitswe tumellanong
017_0296 e eketsehileng ya ditshebeletso tsa
017_0303 batho ba mmalwa le traste
017_0304 ba mekgwa ya ho nosetsa
017_0307 ho chartered accountant se bolelang
017_0315 nang le tokelo ya ho
017_0318 batla ho sa baballe tjhelete
017_0319 sebediswang wa ho phethola mobu
017_0323 boulders
017_0324 hore ho hokelwe phetolelo e
017_0325 lekgotla la bana moo kopo
017_0326 rephaboliking
017_0328 popeho ya pustule tse fifetseng
017_0330 barberton
017_0331 secretariat
018_0001 tokiso ya motheo ya enjene
018_0003 secretariat
018_0008 di tla lokela ho tsamaisa
018_0010 new
018_0012 e tla nkuwa e le
018_0016 leng ka tlase ho dilemo
018_0024 mong ya nang le tokelo
018_0028 belfast
018_0035 tshenyo e sa hlokeheng e
018_0039 e ka loka dibekeng tse
018_0041 dipuo tse neng di tinngwe
018_0042 barkley
018_0051 letsatsi le leng le le
018_0052 tlhaho ho hlokwa hore ba
018_0054 tumello ya setswantle ya ngaka
018_0060 popeho ya pustule tse fifetseng
018_0066 la yona ha feela le
018_0070 boitshwaro bo botle le ditabatabelo
018_0072 kaofela tsa mobu o ka
018_0077 gibbon
018_0085 hlakubele
018_0091 ba etsa bonnete ba hore
018_0094 ho ba teng ha lenyalo
018_0095 wa rona wa motheo o
018_0098 ho teng mefuta e fapaneng
018_0104 proyset
018_0107 crocker
018_0108 biling ya rona ya ditokelo
018_0109 di ka qojwang ka teng
018_0110 ya b di be tharo
018_0113 ana a mararo a kgutlotharo
018_0120 bend
018_0125 fochville
018_0126 barekisi ba thepa e ngata
018_0129 sharonsville
018_0130 hore ditokomane tsa mmuso ha
018_0132 pele tsa mabitso le fane
018_0133 a salla ka hara pompo
018_0134 filweng matla semolao ho sebetsana
018_0136 mesebetsi
018_0144 ya ho hlaha ha peo
018_0145 ha eba masimo a sebedisetswa
018_0149 dijothollo di ka nna tsa
018_0150 mme re etse bonnete ba
018_0151 ho sebetsa le dinaha tse
018_0154 ka tlhahisoleseding ya mokgwa wa
018_0155 tsa ho iteanya le motho
018_0158 katleho teko e beuweng ho
018_0161 woodford
018_0166 sethatho ho iswa ho e
018_0171 minerals
018_0173 dikopano kapa mesebetsi e itseng
018_0177 o bopilwe butlebutle ka mokgwa
018_0179 empa ho sa felle moo
018_0182 jwalo ka browser ya hao
018_0187 thapama kantle le matsatsi a
018_0191 dikopano tsa dikomiti tsa palamente
018_0192 clarksburry
018_0196 ho romela kapa ho tsamaisa
018_0198 florence
018_0201 tse phahameng ka ho fetisisa
018_0202 jo'burg
018_0203 history
018_0208 blood
018_0210 lexical
018_0211 registrar of animal improvement e
018_0213 lwetse
018_0215 behwa ke manejara wa lebatowa
018_0216 bushbuckridge
018_0217 ke ho e etsa ka
018_0218 good
018_0219 ngodisa ho registrar of animal
018_0228 ho ba le seabo mosebetsing
018_0231 mitford
018_0238 dinepe tse pedi tsa id
018_0240 randburg
018_0243 eba o fela o lomahantse
018_0244 mcclennan's
018_0250 badisa
018_0251 ka moya wa ho etsa
018_0252 nngwe ya ditsela tsa ho
018_0256 se holang sa kgolabolokwe e
018_0261 gregory
018_0262 ho tswa porofensing ka nngwe
018_0263 dinepe tse pedi tsa moraorao
018_0264 sandler's
018_0268 tshebetso tsa lekgetho la kuno
018_0269 transvaal
018_0272 le ditjeho tsa diesel e
018_0277 inthanethe mme o e tlatse
018_0281 ho boetswe ha fumanwa hore
018_0288 kgonne jwang ho ntshetsa pele
018_0292 eo ho buuwang ka yona
018_0294 dutton
018_0298 phupu
018_0300 thibelo ya mefuta ya peo
018_0305 ba leruo bo le ka
018_0308 ke ba buang senyesemane le
018_0309 ntja
018_0314 barberton
018_0318 clive
018_0322 le dikhoutu tse nepahetseng tsa
018_0325 jwalo ka ha ho bonahala
018_0334 ba sa sebedise tlwaelo ena
019_0001 ho tswela pele ho ya
019_0015 president harry
019_0025 ya tlhaselo e eso fihle
019_0026 republican party united
019_0027 atlantic
019_0029 la nakwana le lokelwang ho
019_0032 pele ho ka jalwa sejothollo
019_0035 pimville
019_0036 state university alumni
019_0037 ho feta ka moo ho
019_0038 tiisitse hore ha ho hlwahlwa
019_0046 seetebosigo
019_0048 management
019_0050 melbourne football club
019_0052 francisco bay area
019_0054 malwetse a pustule a bakwang
019_0056 tlameha ho felehetsa kopo ka
019_0057 monetary fund imf
019_0058 romela ka mora nako ditlaleho
019_0063 di fetwa ka bohlwahlwa ke
019_0064 mmala o motsho le bosweu
019_0065 bethal
019_0069 re tla tswela pele ka
019_0071 british foreign secretary
019_0074 hard disk drive
019_0077 austrian school economists
019_0078 army occupied cypriot
019_0079 memphis
019_0081 basebeletsi ba lefapha la ditaba
019_0084 west
019_0091 sa moralo wa puo ho
019_0094 diporofensi di a nahanwa boemong
019_0095 tse ikgethileng tsa kgatello di
019_0096 reef
019_0097 ho tla nne ho dule
019_0103 science fiction hall
019_0106 balemi ba ntseng ba thuthuha
019_0108 leo mobu o leng ho
019_0112 e felletseng ya kgatiso tsa
019_0115 tse lokelang ho ba ka
019_0120 meade
019_0125 british west indies
019_0126 ntlafatsa polokeho le tshireletso ya
019_0127 pope benedict
019_0129 functional programming languages
019_0132 ancient near east
019_0137 fact date january
019_0139 western united states
019_0143 knights grand cross
019_0144 lejwe
019_0147 united nations high
019_0154 national baseball hall
019_0155 billion years ago
019_0159 islamic conference oic
019_0163 ka hara lekgotla la naha
019_0167 rapid economic growth
019_0169 tsa diporofensi di a nahanwa
019_0172 northern mariana islands
019_0175 game boy advance
019_0176 poone ya selelekela mabapi le
019_0177 american television actors
019_0180 african unity oau
019_0182 petroleum exporting countries
019_0183 ba thupelo ba lokela ho
019_0185 random access memory
019_0188 american voice actors
019_0192 transvala
019_0197 ludwig von mises
019_0198 roman catholic archbishops
019_0199 south sandwich islands
019_0200 osama bin laden
019_0203 cognitive behavioral therapy
019_0204 dubious date april
019_0205 black sea coast
019_0206 kopo e tlameha ho felehetswa
019_0208 nna a fetoha sebaka moo
019_0209 e tiiseditsweng ha ditokomane di
019_0210 average life expectancy
019_0214 south
019_0215 kopo e ka se elwe
019_0216 ke notary public kapa mokhomishenara
019_0219 california state university
019_0221 persian gulf states
019_0223 lengolo la tumello haeba o
019_0229 american musical theatre
019_0230 moo e leng hore ho
019_0232 eldorado
019_0234 positive real numbers
019_0235 leondale
019_0240 clarify date february
019_0244 tsa tlhahlobo tse molaong mme
019_0247 kansas city royals
019_0248 ha o a dumellwa ho
019_0249 ho bohlokwa ka ho fetisisa
019_0251 mokga oo a etsang kopo
019_0252 liberal arts college
019_0255 ke wa qobella molemi ho
019_0256 ditlhaloso tsa lengolo la truste
019_0257 boston red sox
019_0258 tsa theko ya sehlahiswa le
019_0260 united states district
019_0261 park
019_0265 security assistance force
019_0266 northern
019_0271 ford motor company
019_0276 union member states
019_0278 dikokwanyana ka thibelo ya mefuta
019_0279 samuel's
019_0283 united states declaration
019_0284 early morning hours
019_0285 le moemedi wa afrika borwa
019_0288 tone ka nngwe ho tsamaisa
019_0289 fane ka nomoro ya akhauntu
019_0290 episcopal church usa
019_0291 music awards winners
019_0296 hloka tumello e ikgethang e
019_0299 video game developers
019_0300 petroleum exporting countries
019_0301 general public license
019_0305 hubble space telescope
019_0306 hauhelele
019_0307 tshebetso tsa lekgetho la kuno
019_0308 ho etsa diteko tsa hiv
019_0313 ba badudi ba saruri ba
019_0315 ho tswa ho moabi ya
019_0317 islamic conference oic
019_0321 tsebiso ya lefapha le molaong
019_0323 clarify date march
019_0324 national public radio
019_0327 gcis e ka fana ka
019_0328 old garden roses
019_0331 royal dutch shell
019_0334 states district court
019_0341 states unemployment rate
019_0342 dikgatiso tsa tshebediso ya dipuo
019_0346 united states air
019_0349 dennilton
019_0358 grisly
019_0362 ya hao ya boitsebiso kapa
019_0364 imperial japanese navy
019_0370 kapa o tshwerwe tlasa mental
019_0371 mariha e hloka nako e
019_0372 le ngodisitsweng mona afrika borwa
019_0374 sound
019_0375 kgothalletswa ho ithuta dipuo tse
019_0376 king james version
019_0377 marcel
019_0381 phemiti ya ditswantle ya bongaka
019_0382 mananeo a mmuso a ho
019_0384 etsa kopo bakeng sa phemiti
019_0389 major professional sports
019_0391 re tla sebetsa ka matla
019_0394 haufi tsa ntshetsopele ya setjhaba
019_0395 notable examples include
019_0396 ho fana ka beile le
019_0398 dilemong tse mmalwa tse fetileng
019_0399 united states government
019_0400 box office success
019_0401 ho ya ka palo ya
019_0404 ho bonahala eka ha ho
019_0405 le haebe ho boletswe ka
019_0407 close air support
019_0413 le kgahleho bophelong ba motletlebi
019_0416 di ka qojwang ka teng
019_0418 united states dollar
019_0419 ka hara naha ya afrika
019_0420 ya bt papisong le mekgwa
019_0421 pakeng tsa batho ba babedi
019_0422 old east norse
019_0423 billy
019_0426 ka kamano ya ho se
019_0429 professional american football
019_0432 leng hore ha ho hlokehe
019_0436 ice hockey team
019_0445 fact date july
019_0447 nebula award winning
019_0449 valence bond theory
019_0451 pro football hall
019_0452 ya south african revenue service
019_0454 atlantic treaty organization
019_0455 american free trade
019_0459 comic book series
019_0461 animated television series
019_0462 of access to information act
019_0463 sexually transmitted diseases
019_0464 catherine
019_0465 asian financial crisis
019_0468 ke boikarabelo ba moahi e
019_0471 saense ya lekgotleng la molao
019_0473 boyce
019_0474 ka potlako ka ho ya
019_0479 extension
019_0480 hang ha ho se ho
019_0481 new testament canon
019_0486 ho sebedisa thaere e kgolwanyane
019_0495 aung san suu
019_0497 ke molao wa motheo ho
019_0498 make extensive use
019_0500 open source initiative
019_0501 ya jwalo ha se mang
019_0505 human rights record
019_0506 jewish american writers
019_0507 le ba nang le seabo
019_0508 ho ithuta dipuo tse ding
019_0509 edwin
019_0513 international criminal court
019_0516 hang ka selemo ka mora
019_0517 e leng commission for conciliation
019_0518 arizona state university
019_0519 dutton
019_0523 david
019_0524 e ka nka dikgwedi tse
019_0526 palamente ya rephaboliki ya afrika
019_0527 tswang dipuong tsa sehlopha sa
019_0532 kuno e phahameng ya dijothollo
019_0534 keketseho ya boleng ba masimo
019_0535 ya tswelang pele ka mosebetsi
019_0536 treaty organization nato
019_0537 winter olympic games
019_0538 ludwig von mises
019_0539 ya bt di tshwanetse ho
019_0542 american musical theatre
020_0001 leqephe la pele la foromo
020_0009 articles including recorded
020_0013 pholisi ya naha ya batjha
020_0015 moahong wa lekgotla la naha
020_0016 la ditaba tsa tikoloho le
020_0018 boleng ba bophelo ba batho
020_0020 central
020_0021 proffesor
020_0024 free methodist church
020_0030 kgahlanong le dikgoka ho basadi
020_0032 supreme court ruled
020_0033 good
020_0036 best supporting actor
020_0037 cathode ray tube
020_0041 president george
020_0042 leng se bolelang hore ho
020_0044 law enforcement agencies
020_0047 states environmental protection
020_0051 united states geological
020_0052 madison square garden
020_0059 screen actors guild
020_0063 mesebetsi e itseng ka ho
020_0064 l cuin abbr
020_0065 early church fathers
020_0070 senqu
020_0071 randfontein
020_0077 french west africa
020_0080 grammatical
020_0084 kontane kapa ka tjheke e
020_0086 electron transport chain
020_0091 re kopa hore o ele
020_0093 holy hand grenade
020_0094 valhalla
020_0095 best foreign language
020_0099 di na le nako e
020_0101 following world war
020_0103 high seas fleet
020_0115 ha eba o hloleha ho
020_0124 laesense ya boditjhaba ya ho
020_0125 le o mong o na
020_0128 harry
020_0131 tailor
020_0132 miller's
020_0133 armoured fighting vehicles
020_0140 army air corps
020_0143 ke ke wa kgona ho
020_0145 environmental protection agency
020_0146 ha metsi pakeng tsa dikarolwana
020_0147 mabapi le sehla se tlang
020_0150 buddhism
020_0151 hall
020_0152 power parity comparisons
020_0154 primitive recursive functions
020_0157 strategic air command
020_0162 new york yankees
020_0165 le hore re tle re
020_0168 fact date august
020_0172 maseru
020_0176 international atomic energy
020_0177 october
020_0181 nfc championship game
020_0185 van der waals
020_0186 congressional gold medal
020_0187 e nang le share capital
020_0190 red blood cells
020_0192 wa etsa tshebetso tsa kgwebisano
020_0193 recreation
020_0198 ka morero wa ho matlafatsa
020_0199 gibbon
020_0203 saint john river
020_0204 bridgeport
020_0207 e tswang ho registrar of
020_0208 history
020_0211 ya saense ya lekgotleng la
020_0213 ozone layer protection
020_0217 bill
020_0218 big bang model
020_0223 borwa e se nang morabe
020_0224 centrally planned economy
020_0238 common law jurisdictions
020_0242 bad
020_0251 midrand
020_0254 award winning authors
020_0261 bragg
020_0269 southwestern united states
020_0270 league baseball team
020_0271 poids et mesures
020_0277 hartbeespoort
020_0280 efe kapa efe eo ho
020_0281 church turing thesis
020_0287 palestine liberation organization
020_0288 potter's
020_0293 american psychiatric association
020_0294 chancellorsville
020_0295 foreign direct investment
020_0296 science fiction novel
020_0297 golden globe film
020_0298 ho ntsha raporoto ya radiology
020_0307 modern orthodox judaism
020_0311 man
020_0314 eo re neng re e
020_0316 united states president
020_0320 fifa world cup
020_0322 strong nuclear force
020_0324 royal albert hall
020_0326 motor vehicle manufacturers
020_0335 junior high school
020_0341 rala mme o romele ditokomene
020_0342 nuclear test ban
020_0345 di be tharo mme o
020_0346 mahareng a phato ho fihlela
020_0347 fiction television series
020_0349 south asian association
020_0351 dikopo tse sa tlatswang ka
020_0352 metsimaholo
020_0357 national science foundation
020_0358 la provinse kapa la naha
020_0359 african
020_0364 sa witblits se neng se
020_0368 ya pele e neng e
020_0370 mokgwa wa elektroniki kapa khaontareng
020_0374 le reng limited le tla
020_0379 provenseng kang ho tla ba
020_0380 sapoto jwalo ka ha e
020_0381 randburg
020_0382 european economic area
020_0384 tjhelete ya hae e kenang
020_0390 tse ka hodimo tsa mobu
020_0391 numeric character references
020_0393 kenngwa ha jine ya bt
020_0395 tshebetso e etsang hore ho
020_0396 durban
020_0400 golden globe winners
020_0401 ba bangata ba nang le
020_0402 disebediswa tse seng di ile
020_0405 human development index
020_0411 roman catholic priests
020_0417 mme re tshepa hore moya
020_0419 internet protocol suite
020_0422 formal diplomatic relations
020_0423 north germanic languages
020_0429 september
020_0432 bafta winners people
020_0434 average family size
020_0452 court ha e le traste
020_0455 military coup
020_0457 seo a lokelang ho se
020_0458 lekgotleng la dinyewe ho tla
020_0461 american film producers
020_0462 ka mokgwa o sa tlwaelehang
020_0464 org wiki wikipedia
020_0471 supreme allied commander
020_0472 red blood cells
020_0476 empire
020_0481 hospital
020_0485 great lakes region
020_0487 ka ntle ya batlang ho
020_0489 protea
020_0490 monroe
020_0493 hore ba kgone ho ba
020_0495 afrika borwa ha kopo e
020_0500 magnetic resonance imaging
020_0505 nebula award winning
020_0506 science fiction hall
020_0515 army occupied cypriot
020_0527 clarify date february
020_0531 petroleum exporting countries
020_0538 ba thupelo ba lokela ho
020_0539 ntlafatsa polokeho le tshireletso ya
020_0543 leng hore ha ho hlokehe
020_0545 khopi e netefaditsweng ya bukana
020_0546 dilemong tse ngata tse fetileng
020_0547 animated television series
020_0559 e ngata ho feta e
020_0560 valence bond theory
020_0562 dikgatiso tsa tshebediso ya dipuo
020_0563 open source initiative
