006_0001 tsa lehae provinseng eo o
006_0003 frank lloyd wright
006_0006 new testament canon
006_0007 boyce
006_0011 tsebiso ya lefapha le molaong
006_0013 open source initiative
006_0018 western united states
006_0019 pope benedict
006_0020 tsamaiso ya sehlopha sa boithuto
006_0021 game boy advance
006_0023 kopanelo ya boitshwaro bo botle
006_0024 phasepoto ya hao ya afrika
006_0025 bethal
006_0028 nobel prize winners
006_0033 imperial japanese navy
006_0035 pimville
006_0041 monetary fund imf
006_0044 royal dutch shell
006_0048 notable examples include
006_0050 dilemong tse mmalwa tse fetileng
006_0058 rapid economic growth
006_0059 hard disk drive
006_0060 e bile wa bohlokwa ho
006_0069 melbourne football club
006_0071 german air force
006_0072 malwetse a pustule a bakwang
006_0077 poone ya selelekela mabapi le
006_0081 lefuweng bakeng sa tokelo ya
006_0082 a kopane le nako eo
006_0085 samuel's
006_0088 religious
006_0089 national baseball hall
006_0090 dikgatiso tsa tshebediso ya dipuo
006_0099 american political writers
006_0101 ancient near east
006_0102 president harry
006_0104 ho ya ka palo ya
006_0107 major professional sports
006_0108 mabapi le tshireletso ya dijo
006_0116 ka moo ho ka kgonehang
006_0117 south
006_0122 catherine
006_0124 aung san suu
006_0126 roman catholic archbishops
006_0128 a hlahisa dikgwebo tsa tsona
006_0130 union member states
006_0132 state university alumni
006_0134 ludwig von mises
006_0138 garrick
006_0139 ke notary public kapa mokhomishenara
006_0141 clarify date february
006_0143 lejwe
006_0148 gcis e ka fana ka
006_0149 diporofensi di a nahanwa boemong
006_0152 fihlwang ho yona ya mohlahisi
006_0153 positive real numbers
006_0155 e ya weposaeteng ya lefapha
006_0158 ice hockey team
006_0159 united states dollar
006_0164 transvala
006_0166 average life expectancy
006_0169 dubious date april
006_0170 reef
006_0178 ditletlebo
006_0186 american musical theatre
006_0187 boholo ba nako e etsang
006_0189 army occupied cypriot
006_0193 ka mokgwa o hlwahlwa ho
006_0195 sa moralo wa puo ho
006_0199 box office success
006_0205 animated television series
006_0206 ya phemiti ya mosebetsi ya
006_0207 ba badudi ba saruri ba
006_0208 old garden roses
006_0212 random access memory
006_0214 hloleha ho etsa jwalo ho
006_0215 sexually transmitted diseases
006_0216 king james version
006_0220 khopi e netefaditsweng ya bukana
006_0222 eldorado
006_0223 valence bond theory
006_0225 re tla sebetsa ka matla
006_0226 park
006_0231 motherwell
006_0233 tlameha ho balwa ka botebo
006_0236 ditlhaloso tsa lengolo la truste
006_0243 botoloki ka mohala tsa afrika
006_0245 tsa diporofensi di a nahanwa
006_0249 video game developers
006_0251 kansas city royals
006_0253 united states declaration
006_0255 states unemployment rate
006_0257 persian gulf states
006_0259 clarify date march
006_0263 ho etsa diteko tsa hiv
006_0270 boston red sox
006_0273 tla ba le seabo se
006_0274 meade
006_0275 ferry
006_0278 comic book series
006_0279 music awards winners
006_0280 british foreign secretary
006_0283 le tumello e ngotsweng fatshe
006_0286 ho bohlokwa ka ho fetisisa
006_0287 austrian school economists
006_0291 hang ha ho se ho
006_0299 general public license
006_0302 phetoho efe kapa efe e
006_0303 e tiiseditsweng ha ditokomane di
006_0305 of access to information act
006_0306 south sandwich islands
006_0307 ikopanye le ofisi ya lefapha
006_0309 ke boikarabelo ba moahi e
006_0310 atlantic
006_0314 kiana
006_0315 le haebe ho boletswe ka
006_0318 ka baka la sephetho se
006_0319 nang le tokelo ya ho
006_0320 ofe kapa ofe wa mmuso
006_0321 make extensive use
006_0322 european union member
006_0325 larry
006_0327 dikgopo tsa mahlaku hloohong ya
006_0328 tumellano ya nakwana le seng
006_0329 rephaboliki
006_0336 le ho haha setjhaba sa
006_0337 northern mariana islands
006_0341 sefe sa tlhahlobo ya laesense
006_0346 national public radio
006_0347 black sea coast
006_0348 ho fana ka beile le
006_0354 cognitive behavioral therapy
006_0355 billion years ago
006_0356 united nations high
006_0357 united states government
006_0359 fact date july
006_0363 western united states
006_0364 liberal arts college
006_0369 moya wa ho etsa dintho
006_0375 ho etsa kopo ya tumello
006_0377 ya south african revenue service
006_0378 osama bin laden
006_0381 itseng ntle le ho ama
006_0385 islamic conference oic
006_0387 kgothalletswa ho ithuta dipuo tse
006_0388 billy
006_0390 states district court
006_0391 leondale
006_0393 grand
006_0394 management
006_0396 leo mobu o leng ho
006_0397 marcel
006_0401 international astronomical union
006_0411 tla neha ba leloko sebaka
006_0416 setsheng sa bafu sa poraefete
006_0417 british west indies
006_0427 security assistance force
006_0429 boafrika borwa ba rona bo
006_0431 ho thehwa ha diyuniti tsa
006_0432 functional programming languages
006_0433 petroleum exporting countries
006_0434 california state university
006_0438 memphis
006_0439 francisco bay area
006_0442 fane ka nomoro ya akhauntu
006_0447 high middle ages
006_0448 hubble space telescope
006_0450 di fetwa ka bohlwahlwa ke
006_0451 republican party united
006_0453 test ban treaty
006_0455 dipalopalo
006_0462 ha ho ne ho ena
006_0463 professional american football
006_0467 united states began
006_0468 dennilton
006_0470 fact date january
006_0477 o nka kilograma e le
006_0479 ho bonahala eka ha ho
006_0482 knights grand cross
006_0483 jwalo ka ha ho bontshitswe
006_0485 dintlha dife kapa dife tse
006_0487 ena ka sepheo sa ho
006_0489 ho kganna ya borutehi bo
006_0493 grisly
006_0498 seo o lokelang ho se
006_0499 african unity oau
007_0002 e le hore ba tle
007_0003 le reng limited le tla
007_0005 french west africa
007_0006 miller's
007_0012 blood
007_0016 efe kapa efe e boletsweng
007_0017 a ka nna a baka
007_0019 fact date march
007_0023 tse felletseng tsa moo ho
007_0025 buddhism
007_0028 o neng o rena ditherisanong
007_0029 articles including recorded
007_0030 ho se ho kenwe ho
007_0034 taolo ka dikhemikhale le mefuta
007_0035 mabapi le sehla se tlang
007_0037 environmental protection agency
007_0038 randfontein
007_0040 bay
007_0041 october
007_0042 harry
007_0047 good
007_0049 setifikeiti sa tswalo sa afrika
007_0052 gibbon
007_0054 madison square garden
007_0055 numeric character references
007_0056 magnetic resonance imaging
007_0060 system
007_0061 aterese ya moo o dulang
007_0062 john
007_0064 strategic air command
007_0065 ya pele e neng e
007_0066 russian civil war
007_0068 modern orthodox judaism
007_0071 be bonolo ho palama baesekele
007_0072 midrand
007_0075 dipuo tsa afrika borwa tsa
007_0087 kontane kapa ka tjheke e
007_0088 award winning authors
007_0089 best foreign language
007_0090 ba ka hodimo ho dilemo
007_0091 hartbeespoort
007_0092 lekgotla la ho ntshuwa ha
007_0096 e nngwe ya tsona e
007_0097 efe kapa efe eo ho
007_0099 palestine liberation organization
007_0102 haholo ke moruo wa tsona
007_0104 hospital
007_0106 united states
007_0107 united states senate
007_0111 tsa larvae hammoho le mahe
007_0113 tlasa merero e hlwauweng mona
007_0117 american male singers
007_0118 dipeo le dipeo tse hlahang
007_0119 la provinse kapa la naha
007_0121 saint john river
007_0122 bridgeport
007_0125 le ho tloswa ha matlakala
007_0127 motho ka mong o tlamehile
007_0128 new york yankees
007_0129 e ya ho lefapha la
007_0131 o lokela ho ba motho
007_0134 bafta winners people
007_0135 tlwaelo e ke ke ya
007_0136 mamelodi
007_0138 golden globe film
007_0140 kofi
007_0141 metsimaholo
007_0144 american film producers
007_0148 ka ho lekola tswelopele ya
007_0155 tsa taolo ka dikhemikhale le
007_0156 le o mong o na
007_0160 screen actors guild
007_0161 san francisco giants
007_0163 early church fathers
007_0168 mesebetsi e itseng ka ho
007_0170 armoured fighting vehicles
007_0173 ho tholwa ha ngwana ka
007_0174 e nang le share capital
007_0183 royal albert hall
007_0186 senqu
007_0195 boqwabi
007_0201 national football team
007_0202 randburg
007_0207 tsosoloso ya boemo ba theshiari
007_0208 sam
007_0213 electron transport chain
007_0215 international atomic energy
007_0221 tailor
007_0223 man
007_0225 bragg
007_0229 chancellorsville
007_0235 federal trade commission
007_0242 bilateral immunity agreement
007_0245 kgahlanong le dikgoka ho basadi
007_0250 org wiki wikipedia
007_0274 potter's
007_0275 original game boy
007_0276 dingane
007_0282 primitive recursive functions
007_0287 l cuin abbr
007_0288 tlhokeho ya mosebetsi wa ho
007_0289 ho tla etswa ho latela
007_0290 hall
007_0291 eighty years war
007_0296 provenseng kang ho tla ba
007_0297 e mabapi le maemo a
007_0299 president george
007_0301 supreme allied commander
007_0304 motho e mong ya nang
007_0305 states environmental protection
007_0312 e tlang tse mabapi le
007_0313 e leng se etsang hore
007_0317 mang ya ikemiseditseng ho nehelana
007_0323 human development index
007_0324 golden globe winners
007_0325 best supporting actor
007_0327 internet protocol suite
007_0328 law enforcement agencies
007_0329 european economic area
007_0330 recreation
007_0332 bad
007_0337 lebelo la ho potoloha ha
007_0339 formal diplomatic relations
007_0346 fifa world cup
007_0348 ntate wa ngwana ya tswetsweng
007_0349 ho sireletsa le ho matlafatsa
007_0367 ka mokgwa o hlakileng ho
007_0368 moralo wa leano la puo
007_0379 eo re neng re e
007_0382 science fiction novel
007_0384 grammatical
007_0385 nfc championship game
007_0390 roman catholic priests
007_0391 congressional gold medal
007_0393 united states geological
007_0394 valhalla
007_0399 free methodist church
007_0413 madison square garden
007_0417 bakeng sa nako ya boholo
007_0421 phemiti ya ho rafa kapa
007_0428 cathode ray tube
007_0430 ya hae ntle ho lebaka
007_0432 big bang model
007_0433 citation needed april
007_0435 motor vehicle manufacturers
007_0441 holy hand grenade
007_0444 foreign direct investment
007_0445 ding le tse ding tse
007_0450 ya ho ba teng ha
007_0451 great lakes region
007_0452 army air corps
007_0458 military coup
007_0459 league baseball team
007_0460 ba bangata ba nang le
007_0461 church turing thesis
007_0464 red blood cells
007_0466 lekgotleng la dinyewe ho tla
007_0468 junior high school
007_0469 leng se bolelang hore ho
007_0474 kapa hofe ho ka bang
007_0477 convention
007_0480 empire
007_0482 van der waals
007_0484 banka
007_0485 indastering e batsi ya temo
007_0487 july
007_0492 supreme court ruled
007_0494 monroe
007_0495 complaints
007_0501 ya naha e tshwereng motho
007_0502 ho ya ho se seng
007_0505 northern mariana islands
007_0509 ya bt papisong le mekgwa
007_0512 national baseball hall
007_0518 ancient near east
007_0529 nebula award winning
007_0541 united states navy
007_0547 south sandwich islands
007_0548 ya south african revenue service
007_0550 larry
007_0551 open source initiative
007_0555 dife kapa dife tse amanang
007_0558 ya ho ba teng ho
007_0560 fact date january
007_0564 ha o a dumellwa ho
007_0566 ya grain sa ya tlhahiso
007_0571 dubious date april
007_0572 sekgahla sa ho mela ha
007_0576 episcopal church usa
007_0578 war political
007_0587 video game developers
007_0589 king james version
007_0591 leng hore ha ho hlokehe
007_0592 animated television series
008_0002 fact date january
008_0003 o nka kilograma e le
008_0004 ramolodi
008_0005 ho ba le seabo lenaneong
008_0006 mariha e hloka nako e
008_0007 etsa kopo bakeng sa phemiti
008_0008 islamic conference oic
008_0009 baemedi ba porofensi ho ncop
008_0012 fihlwang ho yona ya mohlahisi
008_0013 park
008_0016 kopo ya bodulo ba saruri
008_0017 animated television series
008_0019 aterese le nomoro ya mohala
008_0021 ford motor company
008_0025 kansas city royals
008_0026 video game developers
008_0032 motheo
008_0035 music awards winners
008_0036 wa setjhaba lawrence mushwana o
008_0040 tshebetso tsa lekgetho la kuno
008_0042 united states navy
008_0043 lejwe
008_0045 europe music
008_0046 leondale
008_0048 pimville
008_0051 letowana
008_0052 saense ya lekgotleng la molao
008_0057 ho tswa ho moabi ya
008_0061 western united states
008_0064 religious
008_0067 extension
008_0074 states district court
008_0075 old garden roses
008_0076 dipalopalo
008_0077 nna a fetoha sebaka moo
008_0079 polasi le nang le boleng
008_0081 grain sa ya tlhahiso ya
008_0083 ya bt papisong le mekgwa
008_0085 tlhekelo
008_0087 management
008_0093 le hore re kgone ho
008_0095 united states government
008_0098 union member states
008_0100 tse ka hodimo ho tse
008_0102 mane ho isa ho a
008_0105 valence bond theory
008_0107 european union member
008_0110 mahola ke sera sa pele
008_0111 professional american football
008_0112 black sea coast
008_0114 open source initiative
008_0116 ka hara naha ya afrika
008_0117 ice hockey team
008_0128 dubious date april
008_0130 american political writers
008_0131 dintho ka mokgwa o sa
008_0132 sexually transmitted diseases
008_0133 station
008_0136 eo ho dumellanweng ka yona
008_0137 phasepoto ya hao ya afrika
008_0141 memphis
008_0142 ya foromo ena e fuwe
008_0144 pro football hall
008_0145 united states began
008_0151 khopi e netefaditsweng ya bukana
008_0152 dikgatiso tsa tshebediso ya dipuo
008_0153 dilemong tse ngata tse fetileng
008_0154 united states dollar
008_0157 united states declaration
008_0159 close air support
008_0161 jwalo ka ha ho bontshitswe
008_0162 ho ngodisa khampani e poraefete
008_0163 aung san suu
008_0166 clarify date march
008_0167 khopi ya rasiti e saennweng
008_0168 o lokela ho etsa kopo
008_0170 general public license
008_0173 ofisi ya iss ya afrika
008_0175 american television actors
008_0176 marcel
008_0178 tse tshwanetseng ho elwa hloko
008_0179 international astronomical union
008_0181 puo ya bajete le setatemente
008_0183 ya dipuo tsa motswalla tse
008_0184 seetebosigo
008_0188 phemiti ya ditswantle ya bongaka
008_0192 mekgatlo e adimanang ka tjhelete
008_0194 ya south african revenue service
008_0197 le moemedi wa afrika borwa
008_0199 african unity oau
008_0202 tiisitse hore ha ho hlwahlwa
008_0207 mona afrika borwa e lokelwa
008_0210 persian gulf states
008_0211 roodepoort
008_0213 british foreign secretary
008_0214 pope benedict
008_0216 masimo a mang le a
008_0217 american voice actors
008_0219 e tshwanetse ho phethwa ka
008_0220 ho itsebisa jwalo ka ntate
008_0222 sound
008_0224 fact date july
008_0225 south sandwich islands
008_0226 samuel's
008_0227 phetoho efe kapa efe e
008_0230 box office success
008_0231 ke notary public kapa mokhomishenara
008_0232 larry
008_0233 ka modulasetulo wa sehlopha sa
008_0234 theko ya sehlahiswa le bongata
008_0235 ka tsela efe kapa efe
008_0236 comic book series
008_0237 tumellano ya nakwana le seng
008_0238 nka matsatsi a fihlang ho
008_0239 royal dutch shell
008_0241 ke mohlodi wa bohlokwa wa
008_0242 ka ho etsa kopo ya
008_0244 ha eba poone e iswa
008_0245 francisco bay area
008_0247 ya tlhaselo e eso fihle
008_0248 nang le tokelo ya ho
008_0250 republican party united
008_0251 imperial japanese navy
008_0255 ho thehwa ha diyuniti tsa
008_0256 ya grain sa ya tlhahiso
008_0257 le ho haha setjhaba sa
008_0259 diporofensi di a nahanwa boemong
008_0261 moya wa ho etsa dintho
008_0262 new testament canon
008_0264 war political
008_0265 rapid economic growth
008_0266 test ban treaty
008_0267 american nobel laureates
008_0271 ya nka bolelele ba dibeke
008_0272 hloka tumello e ikgethang e
008_0273 sefe sa tlhahlobo ya laesense
008_0275 re tla sebetsa ka matla
008_0278 itseng ntle le ho ama
008_0279 petroleum exporting countries
008_0280 bahlokomedi ba bona ba molao
008_0283 united states district
008_0286 borwa di tlameha ho ngodiswa
008_0287 a hlahisa dikgwebo tsa tsona
008_0288 billion years ago
008_0290 lekala la thuto le thupelo
008_0291 a dintwa tsa ka malapeng
008_0294 american musical theatre
008_0296 eldorado
008_0299 ho etsa diteko tsa hiv
008_0300 e ne e le sebaka
008_0306 mokga oo a etsang kopo
008_0308 hard disk drive
008_0311 liberal arts college
008_0312 states unemployment rate
008_0313 foromo ya kopo ka dikopi
008_0316 british west indies
008_0317 ho ngodisa jwalo ka setsebi
008_0318 security assistance force
008_0319 ka mora nako e itseng
008_0320 ho ba motswadi wa letholwa
008_0321 ho fafatsa kgahlanong le mahola
008_0322 ba hore khopi ya foromo
008_0323 romela ka mora nako ditlaleho
008_0324 president harry
008_0325 northern
008_0326 ntlafatsa polokeho le tshireletso ya
008_0327 atlantic
008_0329 mabapi le maemo a setjhaba
008_0330 make extensive use
008_0332 boston red sox
008_0333 lokela ho lefa lekgetho la
008_0337 batlang ho fumana boahi ba
008_0338 ofe kapa ofe wa mmuso
008_0339 clarify date february
008_0341 wa ho qala wa leloko
008_0343 kapa o tshwerwe tlasa mental
008_0344 frank lloyd wright
008_0345 wa batswadi kapa mohlokomedi wa
008_0347 ka mokgwa o hlwahlwa ho
008_0348 morao ka dilemo tse ngata
008_0349 ba ratang naha ya habo
008_0350 ho kganna ya borutehi bo
008_0352 reef
008_0353 ka puo ya kgetho ya
008_0354 palestinian national authority
008_0355 ho thola ngwana ka molao
008_0356 united nations high
008_0358 ho ya ka palohare ya
008_0361 le mekgwa e meng ya
008_0362 pakeng tsa batho ba babedi
008_0363 inshorense ya tse sebediswang mobung
008_0366 poone ya selelekela mabapi le
008_0367 early morning hours
008_0370 setsheng sa bafu sa poraefete
008_0371 kapa ho hloka bokgoni ba
008_0373 motherwell
008_0374 hang ha ho se ho
008_0376 di ka nna tsa fetoha
008_0377 ba le seabo ha basadi
008_0378 episcopal church usa
008_0379 khampani kapa khampani ya ba
008_0380 hlahisa ditabatabelo le mehopolo ya
008_0381 german air force
008_0382 grand
008_0384 wa seboka sa naha le
008_0385 kopo ya ho ngodisa khampani
008_0386 mabapi le tshireletso ya dijo
008_0387 boramesebetsi ba lokela ho saena
008_0388 boyce
008_0389 high middle ages
008_0390 tlosa pompo pele ba ilo
008_0391 kiana
008_0393 e ya weposaeteng ya lefapha
008_0395 yona ha feela le tla
008_0396 atlantic treaty organization
008_0397 random access memory
008_0399 ha o a dumellwa ho
008_0400 osama bin laden
008_0401 phahameng ya poone le mmaraka
008_0404 tlameha ho ba karolo ya
008_0407 of access to information act
008_0408 ho tshela oli e ntjha
008_0409 billy
008_0411 hong kong island
008_0412 tsa diporofensi di a nahanwa
008_0413 islamic conference oic
008_0414 ditlhaloso tsa lengolo la truste
008_0416 basebeletsi ba lefapha la ditaba
008_0417 o tshwanetse ho ela hloko
008_0418 moo e leng hore ho
008_0420 hloka bokgoni ba ho phetha
008_0421 knights grand cross
008_0422 ba badudi ba saruri ba
008_0423 ka kamano ya ho se
008_0424 balemi ba ntseng ba thuthuha
008_0428 botle le ditabatabelo tsa ditho
008_0431 kopanelo ya boitshwaro bo botle
008_0432 northern mariana islands
008_0433 ho sebedisa thaere e kgolwanyane
008_0435 merafong le temong bakeng sa
008_0438 di fetwa ka bohlwahlwa ke
008_0439 haufi tsa ntshetsopele ya setjhaba
008_0440 ke sesebediswa se sebetsang ka
008_0441 ho ntlafatsa boleng ba bophelo
008_0442 ha eba o na le
008_0446 dennilton
008_0447 e bile wa bohlokwa ho
008_0448 moahi wa afrika borwa kapa
008_0450 new york jets
008_0451 western european countries
008_0452 king james version
008_0453 american sign language
008_0456 ya makgulo bakeng sa kgwebo
008_0457 leng hore ha ho hlokehe
008_0460 ya hao ya boitsebiso kapa
008_0463 grisly
008_0464 garrick
008_0466 e ise embasing kapa misheneng
008_0467 notable examples include
008_0468 ho ya ho se seng
008_0469 di ka romelwa ofising efe
008_0471 ho mokga o laolang wa
008_0473 austrian school economists
008_0474 ya phemiti ya mosebetsi ya
008_0478 ludwig von mises
008_0479 fane ka nomoro ya akhauntu
008_0480 catherine
008_0481 bethal
008_0482 kapa badudi ba saruri ba
008_0483 ha ba hloke ho ntsha
008_0484 merero e ntlafaditsweng ya tlhahiso
008_0486 le ka baka la tshebedisano
008_0489 motho ya jwalo ha se
008_0491 san pedro sula
008_0493 hloka bokgoni ba ho nehelana
008_0494 mafelong a kgwedi e nngwe
008_0495 afidaviti eo ho entsweng kano
008_0496 united states federal
008_0497 human rights record
008_0498 jwalo ka o motjha mme
008_0499 o le moahi wa afrika
008_0500 folaga e ntle ka ho
008_0501 bonaparte
008_0503 edwin
008_0505 n g rjuna
008_0506 ya moithuti e le yona
008_0507 form hydrogen bonds
008_0508 ba lenaneo la ntshetsopele ya
008_0509 le ba nang le seabo
008_0511 mabapi le puo tsa lefapha
008_0513 ho latela dipehelo tsa molao
008_0514 united arab emirates
008_0521 day saint movement
008_0523 ka ntle eo e leng
008_0525 president woodrow wilson
008_0526 le haufi le la sars
008_0527 ya hao setatementeng sa banka
008_0528 ya tswelang pele ka mosebetsi
008_0529 e etsa bonnete ba hore
008_0530 jewish american writers
008_0532 ya nang le phemiti ya
008_0533 mohahamoriti
008_0536 lebitsong la motho e mong
008_0539 lengolo le tswang ho setho
008_0540 wayne state university
008_0543 winter olympic games
008_0545 la mokopi kapa lebitso la
008_0546 kansas state university
008_0547 nna ha etsahala hore o
008_0548 institjhute
008_0549 international financial institutions
008_0550 jwaloka ha o fetisitswe le
008_0552 ludwig von mises
008_0553 ke e nngwe ya dintlha
008_0554 eo ba nang le yona
008_0556 e leng commission for conciliation
008_0557 kapa ofe ya batlang ho
008_0558 borwa a ka ba teng
008_0559 guano islands act
008_0560 power parity comparisons
008_0561 dikgatiso tsa menwana ya mokopi
008_0562 american short story
008_0565 dutton
008_0567 lengolo la bopaki la phytosanitary
008_0569 moo o ile wa sebediswa
008_0570 john von neumann
008_0571 kopo ya ho tholwa ha
008_0572 halleck
008_0573 social democratic party
008_0574 a mmalwa ho ya dibekeng
008_0578 pope urban
008_0581 american musical theatre
008_0582 real gdp growth
008_0583 palamente ya rephaboliki ya afrika
008_0584 los angeles county
008_0585 ba dilemo tse ka hodimo
008_0586 clarify date november
008_0587 ho hloleha ho etsa jwalo
008_0588 le ona o hlokometse hore
008_0591 ebe o nka kilograma e
008_0593 ya ka maemo a amohelehileng
008_0595 north west company
008_0596 ya b di be tharo
008_0597 mtv video music
008_0598 metsi a mangata hoo tse
008_0599 atlantic slave trade
008_0600 chinese civil war
008_0601 qhamakwane
008_0602 italian roman catholics
008_0606 civil class
008_0607 received mixed reviews
008_0608 quantum field theory
008_0609 international criminal court
008_0610 essential fatty acids
008_0612 e ka nka dikgwedi tse
008_0613 central processing unit
008_0614 nakong ya matsatsi a balemi
008_0616 internal combustion engine
008_0617 missing living people
008_0618 etsa hore a kgone ho
008_0619 native american tribes
008_0620 chinese communist party
008_0621 ya afrika borwa ba dilemo
008_0622 guru granth sahib
008_0623 david
008_0624 treaty organization nato
008_0626 a se ke a kena
008_0627 dikarolong tsa yona tsa metso
008_0629 ntshetsopele ya molemi wa grain
008_0632 united states relations
008_0633 social democratic parties
008_0634 re batla ho tswela pele
008_0637 lebanese armed forces
008_0641 world trade center
008_0642 tla amohelwa jwalo ka setswantle
008_0643 batho ba bang ke ba
008_0644 education
008_0645 major political parties
008_0647 north germanic languages
008_0648 president
008_0649 ka ho nka disampole tsa
008_0650 a ka etsa kopo ya
008_0654 ridgeway
008_0655 batho ba afrika borwa bao
008_0656 wa afrika borwa ntle le
008_0658 kutu
008_0661 supreme court justice
008_0662 hore ho teng balemi ba
008_0663 la dithuto la afrika borwa
008_0664 o ka nna wa fafatsa
008_0668 badudi ba saruri ba batlang
008_0670 ho kenweng ho ona ka
008_0671 sefe kapa sefe se ka
008_0672 british west indies
008_0674 american football conference
008_0675 major league baseball
008_0677 italian roman catholics
009_0001 mabitso a bonkgetheng bakeng sa
009_0007 hore menyenyetsi e mabapi le
009_0009 moscow state university
009_0017 south asian association
009_0018 centrally planned economy
009_0019 science fiction novel
009_0020 magnetic resonance imaging
009_0022 banka
009_0023 lekgotla la ho ntshuwa ha
009_0024 nfc championship game
009_0025 le ho romela ditokomane ho
009_0026 holy hand grenade
009_0030 african
009_0032 gibbon
009_0034 o okina ahu
009_0039 tsosoloso ya boemo ba theshiari
009_0040 leng le le leng kapa
009_0041 united states
009_0042 proffesor
009_0046 history
009_0047 e tswang ho registrar of
009_0048 neelane ka kopo ya hao
009_0049 di tswela pele ho sa
009_0051 foreign direct investment
009_0052 mokgwa wa elektroniki kapa khaontareng
009_0053 bakeng sa nako ya boholo
009_0055 palestine liberation organization
009_0056 monroe
009_0057 screen actors guild
009_0060 san francisco giants
009_0062 la boemo bo hodimo la
009_0063 sam
009_0064 north germanic languages
009_0065 rala mme o romele ditokomene
009_0067 madison square garden
009_0069 bragg
009_0070 sebetsa jwalo ka borasaense ba
009_0073 army air corps
009_0075 seng le lefilwe bakeng sa
009_0078 midrand
009_0080 o motsho le o mosweu
009_0084 american film producers
009_0085 golden globe winners
009_0086 la ditaba tsa lehae hore
009_0089 united states census
009_0093 moo motho a fumanang kuno
009_0094 wa afrika borwa ya hlokahetseng
009_0097 lebelo la ho potoloha ha
009_0099 motor vehicle manufacturers
009_0100 national science foundation
009_0101 united states senate
009_0104 senqu
009_0106 tshebetso ya botsebi ba saense
009_0107 lokile pele o etsa kopo
009_0108 e nang le share capital
009_0109 moralo wa leano la puo
009_0112 ile ba hapa moputso wa
009_0113 mokgatlo o emetseng basebeletsi tumellanong
009_0114 ya tumello ya ho romela
009_0115 tse felletseng tsa moo ho
009_0116 international atomic energy
009_0117 sepolesa sa aforikaborwa e lefe
009_0118 lefapheng la kgwebo le indasteri
009_0122 new york yankees
009_0123 award winning authors
009_0124 bophelong
009_0126 feta pele hore ho na
009_0127 ho kenngwa tshebetsong ha melao
009_0128 tla kenyeletsa bonyane thuto e
009_0129 ka mokgwa o hlakileng ho
009_0130 john
009_0131 good
009_0133 be bonolo ho palama baesekele
009_0141 mang ya ka etsang kopo
009_0143 re tsebang ho sebetsa re
009_0146 southwestern united states
009_0147 ditaba tse amanang le molao
009_0148 manejara wa lebatowa a ananela
009_0150 strong nuclear force
009_0151 le ho tloswa ha matlakala
009_0152 org wiki wikipedia
009_0154 european economic area
009_0155 ka morero wa ho matlafatsa
009_0156 junior high school
009_0157 boholo ba masimo a hao
009_0158 afrika borwa ba leng mose
009_0159 durban
009_0162 tla tshwarwa ka mokgwa o
009_0164 saint john river
009_0165 red blood cells
009_0168 tse ding le tse ding
009_0169 bao e leng ditho tsa
009_0170 ha eba o hloleha ho
009_0174 american psychiatric association
009_0175 royal albert hall
009_0176 setefikeiti sa boingodiso ba koloi
009_0177 ho se ho kenwe ho
009_0178 october
009_0180 feteng dikgwedi tse tharo kapa
009_0181 bay
009_0182 court ha e le traste
009_0184 diprojeke tsa bohlokwa tsa lenaneo
009_0185 ile wa rekisetswa lefapha la
009_0186 ho tla etswa ho latela
009_0188 maseru
009_0189 o lokela ho ba motho
009_0190 o neng o rena ditherisanong
009_0192 bill
009_0193 president george
009_0194 e sebetswa letsatsing leo e
009_0195 ya mahola le dikokwanyana ka
009_0196 sehlopheng sa rona sa tshebetso
009_0197 tshebeletso ya poso e sa
009_0198 mabapi le mefuta e metle
009_0199 nako e hlokolosi e ka
009_0200 di be tharo mme o
009_0201 fifa world cup
009_0202 strategic air command
009_0203 karolong e ka tlase ya
009_0204 kapa mokgatlo wa nakwana o
009_0205 le dipehelo tse ding tse
009_0206 system
009_0207 kofi
009_0208 argentina ho ya afrika borwa
009_0209 ba bangata ba nang le
009_0210 ya thuso bakeng sa ho
009_0211 leqephe la pele la foromo
009_0212 tailor
009_0213 mme hona ho tla ya
009_0214 hodimo ho moo ba tla
009_0215 convention
009_0216 grammatical
009_0217 tsa tokisetso tsa lekgetho di
009_0218 seo o hopotseng ho se
009_0219 le eneji le la dikgwebo
009_0221 l cuin abbr
009_0222 mahareng a phato ho fihlela
009_0225 moahi wa naha ya afrika
009_0226 e nngwe ya tsona e
009_0227 golden globe film
009_0229 american jewish people
009_0233 best foreign language
009_0234 american male singers
009_0236 nelson mandela le thabo mbeki
009_0237 following world war
009_0238 pheta tshebetso ena makgetlo a
009_0239 kopo ya phemiti ya bodulo
009_0240 phethahatso ya leano lena e
009_0242 kenngwa ha jine ya bt
009_0243 ho tloha sebopehong sa kgale
009_0244 ba ka hodimo ho dilemo
009_0246 hore mobu o na le
009_0247 ntswaki
009_0251 articles including recorded
009_0252 senyesemane
009_0254 lokelang ho fetolelwa bafetoleding ba
009_0255 cathode ray tube
009_0256 ba ngodise ho south african
009_0258 buddhism
009_0260 harry
009_0262 seahelo sa ho lokisa tlhapi
009_0264 fiction television series
009_0265 peo ya ona e ka
009_0266 le o mong o na
009_0267 formal diplomatic relations
009_0268 best supporting actor
009_0270 roman catholic priests
009_0272 hore ditokomane tsa mmuso ha
009_0273 primitive recursive functions
009_0274 la ditaba tsa tikoloho le
009_0277 randburg
009_0283 poids et mesures
009_0284 numeric character references
009_0285 ho ntsha raporoto ya radiology
009_0286 north west company
009_0289 complaints
009_0292 free methodist church
009_0294 ya tshwereng thaetlele kapa monga
009_0296 ho ntse ho na le
009_0297 kgahlanong le dikgoka ho basadi
009_0298 recreation
009_0299 randfontein
009_0305 early church fathers
009_0306 recent common ancestor
009_0308 afrika borwa ha kopo e
009_0309 mabapi le tlhahiso ya koro
009_0310 ding le tse ding tse
009_0312 ka baka hore a lefiswe
009_0314 chancellorsville
009_0316 motho ka mong o tlamehile
009_0317 tswela pele ho sebetsa le
009_0319 setifikeiti sa tswalo sa afrika
009_0321 seboka sa naha le lekgotla
009_0322 high seas fleet
009_0325 supreme court ruled
009_0326 nakwana ke ho thusa balefi
009_0327 environmental protection agency
009_0332 tikoloho
009_0333 ozone layer protection
009_0334 power parity comparisons
009_0335 hlodisana le dijothollo mabapi le
009_0337 tlasa merero e hlwauweng mona
009_0338 ha eba poone e sa
009_0339 ho suthisa ka ho ya
009_0343 bilateral immunity agreement
009_0345 fact date august
009_0346 bridgeport
009_0348 moaho wa lekgotla la naha
009_0350 la afrika borwa la basebetsi
009_0354 sa witblits se neng se
009_0355 fact date march
009_0357 haholo ke moruo wa tsona
009_0358 eighty years war
009_0359 se kgethollwe ho ya ka
009_0362 motho ya tshwereng thaetlele kapa
009_0363 military coup
009_0366 hartbeespoort
009_0369 average family size
009_0370 ha eba kere e potolohisang
009_0371 la provinse kapa la naha
009_0374 tlhahiso ya poone tlasa nosetso
009_0375 banna le basadi ba na
009_0376 tshebedisano e kwetsweng e lefa
009_0381 french west africa
009_0385 nako e telele ho tiisitse
009_0386 eo re neng re e
009_0389 national football team
009_0392 ya poso e sa risefuwang
009_0393 tse ka hodimo tsa mobu
009_0395 ya rona ya puo le
009_0396 empire
009_0398 ya ho ba teng ha
009_0402 big bang model
009_0406 september
009_0408 federal trade commission
009_0409 congressional gold medal
009_0410 boqwabi
009_0411 bad
009_0414 original game boy
009_0416 new york jets
009_0418 motho a tshwerweng ho yona
009_0425 man
009_0427 electron transport chain
009_0431 e kenella tlase mobung le
009_0432 rona bo tataiswe haholo ke
009_0436 miller's
009_0438 league baseball team
009_0439 dutch east india
009_0440 law enforcement agencies
009_0441 russian civil war
009_0443 united states geological
009_0445 modern orthodox judaism
009_0446 e le kgolo ho eo
009_0447 tswa ho monga setsha seo
009_0449 ke ke wa kgona ho
009_0450 tlamehile maoto le matsoho ho
009_0452 hlahisa dijothollo di phahame haholo
009_0453 common law jurisdictions
009_0455 ha e kenyeletse hlapi ya
009_0457 tumello e ngotsweng fatshe e
009_0459 e tla fapana ka ho
009_0460 bafta winners people
009_0461 sebediswa ho laola lebelo la
009_0462 hospital
009_0465 church turing thesis
009_0466 potter's
009_0471 tlhahiso ya dijothollo mobung o
009_0473 lekgotleng la dinyewe ho tla
009_0474 human development index
009_0475 metsimaholo
009_0481 borwa e se nang morabe
009_0482 jwalo ka ha ho hlokeha
009_0483 protea
009_0484 dikarolo dife kapa dife tse
009_0485 basebeletsi ba hao le dijothollo
009_0488 madison square garden
009_0490 television shows set
009_0491 bona ba na le tokelo
009_0495 national hockey league
009_0497 internet protocol suite
009_0498 hore ba kgone ho ba
010_0001 tlwaelo e ntle ho tlosa
010_0002 re lokelang ho e tsamaya
010_0003 ho etsa tekolo e phethahetseng
010_0005 hekthara ka nngwe e ka
010_0006 greeks
010_0010 bothata ba ho teteana ha
010_0011 se ngotsweng fatshe sa ditherisano
010_0015 ho romela hlapi ho tswa
010_0016 ho raroloha kantle ha kgokahano
010_0018 god
010_0019 theunissen
010_0021 bakeng sa dilemo tse hlano
010_0022 seo e leng sa bohlokwa
010_0025 ka mokgwa wa elektroniki kapa
010_0032 ho ya lekgotleng la dinyewe
010_0034 ho sebedisa poone e le
010_0041 phuthiatsana
010_0042 tshebediso ya dipuo tse tharo
010_0044 witbank
010_0045 ba le boikarabelo ba tshebetso
010_0046 hillbrow
010_0047 le mashome a mararo tse
010_0048 mafapheng a fapaneng a temo
010_0051 palamente ya pele ya demokerasi
010_0052 selbourne
010_0054 le batho lefatsheng le fetofetohang
010_0055 na sebolayalehola se ngodisitswe ho
010_0057 dipalangwang
010_0060 tlhokomelo ya motheo ya bophelo
010_0062 population
010_0066 e nepahetseng e tlameha ho
010_0068 ho tshwasa ditlhapi eo sekepe
010_0069 tla etsa hore o kgone
010_0070 tla ba le boikarabelo ba
010_0074 ke motho ya etsang kopo
010_0075 a ile a ba teng
010_0076 lefapha la ditaba tsa naha
010_0077 botebo bo bonyane ho feta
010_0079 sebaka moo sepudutsi se ke
010_0082 tse ding di sebetsa ka
010_0087 lokelang ho fetolelwa bafetoleding ba
010_0088 ho latelwa ke mafapha a
010_0089 dibaktheria mabapi le bolwetse bo
010_0092 le ho ba le seabo
010_0093 ya authority to apply e
010_0094 charles
010_0095 ya tjhelete e kenang ya
010_0097 dipuo tsohle la afrika borwa
010_0100 beuweng ke letona ka kgothaletso
010_0103 bakeng sa ho romela hlapi
010_0104 ho teng balemi ba batsho
010_0107 parktown
010_0109 diforomo ha di fumanehe khomputeng
010_0110 hore ho sebediswe puo e
010_0112 pele ka sepheo sa ho
010_0114 ho ba tshebeletso ya lekgetho
010_0117 o nka kilograma e le
010_0121 tsa rona di lebiswa ho
010_0123 molemi e mong le e
010_0125 tshehetso ya dikgwebo tse nyenyane
010_0128 le ha e le afe
010_0130 lejwe
010_0131 pedi tsa foromo ya kopo
010_0135 batho ba batsho ikonoming ka
010_0136 agency
010_0137 dijo tsa phepo ya diphoofolo
010_0139 mayflower
010_0141 ho iteanya le masepala wa
010_0144 botle
010_0145 lengolo la bopaki la sethatho
010_0147 hore o romele polane ya
010_0156 ka nna ya teteanya mobu
010_0158 le dimela mabapi le mongobo
010_0159 o seng o ntse o
010_0160 le moruo wa tshebetso ya
010_0166 drummond's
010_0169 tokisong ya tshingwana ya peo
010_0170 o se ke wa kenya
010_0172 tla sebedisa monyetla wa bodulasetulo
010_0175 terekere le sesebediswa sa temo
010_0176 behilweng bakeng sa tshebeletso ena
010_0177 ya ho tsamaisa puo e
010_0180 kenya khoutu efe kapa efe
010_0181 laesense ya ho tsamaisa tshebeletso
010_0184 engineering
010_0186 e seng lebitso la kgwebo
010_0188 jerusalema
010_0189 tshebetso ya toka e kgahlanong
010_0190 dumellana ka puo ya tshebetso
010_0191 hammoho le tjhelete ya matsatsi
010_0192 na le bopaki bo ngotsweng
010_0193 eo mobu o leng lebatoweng
010_0195 e se e amohetswe biling
010_0196 tseo batho ba tobaneng le
010_0202 ho feta ho ya ka
010_0203 etswa ho sebedisa ditshebeletso tsa
010_0204 ya ho kenngwa tshebetsong ha
010_0207 ho ya ka mehopolo e
010_0210 ntle mofuta wa hlapi o
010_0216 itshetlehile ho nehelano e nepahetseng
010_0217 rosecrans
010_0218 nagata e baka mathata a
010_0219 ho etswa matsapa ohle ho
010_0220 e ka nna ya eketseha
010_0221 setshelo sa witblits se neng
010_0223 e leng molwanedi wa ditokelo
010_0226 bopa karolo ya bohlokwa haholo
010_0229 ho fafatsa dibolayakokwanyana hodima dimela
010_0230 o romele bopaki ba tefo
010_0231 ha re tloheleng ho reka
010_0232 wa sepikara wa seboka sa
010_0233 lenaneo la kwetliso le ntshetsopele
010_0236 basotho
010_0237 tse phahameng tsa tse sebediswang
010_0238 tshebeletso ena ke ho etsa
010_0239 hammoho le motso o moholo
010_0240 e phahameng mona afrika borwa
010_0241 tsheletseng ho isa ho tse
010_0242 baeti
010_0244 tsa botoloki ka mohala tsa
010_0247 sa tumello ya sekiri sa
010_0248 sepheo sa yona e leng
010_0251 seo di kopanang le sona
010_0252 foromo hore o e tlatse
010_0256 ho behela taelo ka thoko
010_0257 ntate wa ngwana ya tswetsweng
010_0258 moabi ya ananetsweng wa thupelo
010_0260 moremedi
010_0261 balemi ba bahwebi ba selehae
010_0263 carolina
010_0264 wa lekgetho ho etsa ditifelo
010_0265 folaga e ntle ka ho
010_0266 maqephe kapa dihlahiswa tse ding
010_0269 sunnyside
010_0270 phate
010_0271 e kenella tlase mobung le
010_0272 printer
010_0273 le matla a ho etsa
010_0274 potso e ka nna ya
010_0275 a dikhemikhale a ka nna
010_0276 id tsa mmala o motsho
010_0277 moihlwe
010_0278 baka mathata temong ya dijothollo
010_0279 ditaba tsa lehae kapa embasing
010_0280 palamente ya rona e ntjha
010_0282 grint
010_0286 jwalo ka ha ho boletswe
010_0287 ditshebeletso tseo ho fanweng ka
010_0291 township
010_0292 ka nngwe ho isa ho
010_0299 animal improvement e a hlokahala
010_0304 mofuta ona wa peo o
010_0308 louis
010_0319 setatemente se saennweng ho tswa
010_0325 palohare ya pula ya selemo
010_0326 ho efe kantoro ya sebaka
010_0328 fana ka monyetla wa ho
010_0329 tsa yona tsa metso hape
010_0331 ba ntseng ba thuthuha ke
010_0334 katoloso ya nako ya ho
010_0336 le dibaktheria mabapi le bolwetse
010_0338 tjhona ho bakilweng ke bohlaswa
010_0342 tlhahiso le thekiso ya poone
010_0345 boulders
010_0346 bo sebediswa e le mokgwa
010_0347 toba e mabapi le ditlhoko
010_0350 e ile ya ntshetswa pele
010_0351 ho fihlella selemong sa boraro
010_0359 hore ho be bonolo ho
010_0362 bulawayo
010_0363 puo le ela hloko dipehelo
010_0368 motho ofe kapa ofe kapa
010_0369 ditswantle ya bongaka ba diphoofolo
010_0371 boahi ba naha e nngwe
010_0372 dumela hore ha re sebetsa
010_0373 hao ya boitsebiso kapa setifikeiti
010_0375 ho bohlokwa ho nwa dipilisi
010_0376 ya tswang dinaheng tsa ka
010_0378 tse tlang ho dumella moithuti
010_0381 ho latelwa melao le melawana
010_0383 buke
010_0384 terekere le disebediswa tsa polasing
011_0001 sa witblits se neng se
011_0004 kontane kapa ka tjheke e
011_0005 kopi e tiiseditsweng ya bukana
011_0010 church turing thesis
011_0011 jwalo ka ha ho hlokeha
011_0014 junior high school
011_0015 bridgeport
011_0023 saint john river
011_0024 kenngwa ha jine ya bt
011_0025 military coup
011_0030 july
011_0032 ho na le mefuta e
011_0037 screen actors guild
011_0040 african
011_0041 laesense ya boditjhaba ya ho
011_0045 boholo ba masimo a hao
011_0046 fifa world cup
011_0051 hall
011_0062 convention
011_0063 senqu
011_0065 la afrika borwa la basebetsi
011_0068 l cuin abbr
011_0070 ba ka hodimo ho dilemo
011_0071 league baseball team
011_0073 law enforcement agencies
011_0078 blood
011_0080 ba ngodise ho south african
011_0082 common law jurisdictions
011_0086 ozone layer protection
011_0087 history
011_0088 holy hand grenade
011_0089 o neng o rena ditherisanong
011_0092 madison square garden
011_0094 kopo ya phemiti ya bodulo
011_0096 best supporting actor
011_0101 following world war
011_0102 san francisco giants
011_0103 palestine liberation organization
011_0104 la boemo bo hodimo la
011_0109 bill
011_0111 moscow state university
011_0115 american psychiatric association
011_0118 american male singers
011_0119 a lehodimo nakong ya tshebediso
011_0120 sapoto jwalo ka ha e
011_0121 boqwabi
011_0122 maseru
011_0123 big bang model
011_0128 early church fathers
011_0132 north germanic languages
011_0134 modern orthodox judaism
011_0135 congressional gold medal
011_0140 o ne a atisa ho
011_0145 magnetic resonance imaging
011_0149 federal trade commission
011_0151 randfontein
011_0156 argentina ho ya afrika borwa
011_0157 leng se bolelang hore ho
011_0161 monroe
011_0162 kofi
011_0163 recreation
011_0164 hore mobu o na le
011_0169 original game boy
011_0172 hospital
011_0185 baheno
011_0190 tokomane eo o batlang ho
011_0191 centrally planned economy
011_0192 ya mobu bakeng sa ntshetsopele
011_0193 ho tshwarella nako e telele
011_0195 fact date march
011_0197 miller's
011_0198 strong nuclear force
011_0200 average family size
011_0205 american film producers
011_0206 french west africa
011_0208 tsitsitseng mmusong maemong le ha
011_0210 motho ka mong o tlamehile
011_0211 chancellorsville
011_0220 united states geological
011_0221 org wiki wikipedia
011_0223 free methodist church
011_0226 hartbeespoort
011_0229 september
011_0230 united states army
011_0237 american jewish people
011_0242 states environmental protection
011_0243 tsa tokisetso tsa lekgetho di
011_0248 golden globe film
011_0262 midrand
011_0263 foreign direct investment
011_0270 ho hlokeha lengolo la tumello
011_0272 randburg
011_0279 efe kapa efe eo ho
011_0280 harry
011_0282 october
011_0283 durban
011_0289 john
011_0291 potter's
011_0293 award winning authors
011_0296 mang ya ka etsang kopo
011_0298 best foreign language
011_0301 proffesor
011_0302 sam
011_0304 e nang le share capital
011_0305 le o mong o na
011_0309 tsa lekgetho di ka phethahatswa
011_0317 terekere le disebediswa tsa polasing
011_0318 supreme court ruled
011_0320 international atomic energy
011_0322 lefapheng la kgwebo le indasteri
011_0323 dutch east india
011_0325 electron transport chain
011_0331 great lakes region
011_0336 re kopa hore o ele
011_0337 primitive recursive functions
011_0341 nuclear test ban
011_0343 ya etsang kopo ya tokomane
011_0344 leqephe la pele la foromo
011_0345 ya kopo ofising e haufi
011_0349 akhaonteng e latelang ya banka
011_0350 protea
011_0352 banna le basadi ba na
011_0354 poids et mesures
011_0356 moaho wa lekgotla la naha
011_0358 high seas fleet
011_0361 rona bo tataiswe haholo ke
011_0362 tjhelete ya hae e kenang
011_0363 united states president
011_0364 sepolesa sa aforikaborwa e lefe
011_0366 o okina ahu
011_0368 south asian association
011_0370 ya mahola le dikokwanyana ka
011_0376 system
011_0380 tsela e tla ba le
011_0381 leqephe la pele la foromo
011_0382 ozone layer protection
011_0383 mahola e tshwanetse ho etswa
011_0384 science fiction novel
011_0386 southwestern united states
011_0387 miller's
011_0390 screen actors guild
011_0393 hangata a na le metso
011_0398 strategic air command
011_0399 motho ya tshwereng thaetlele kapa
011_0408 armoured fighting vehicles
011_0414 bilateral immunity agreement
011_0419 balemi ba batjha ba ka
011_0420 van der waals
011_0421 early church fathers
011_0422 e tswang ho registrar of
011_0423 madison square garden
011_0425 hospital
011_0426 madison square garden
011_0428 red blood cells
011_0429 internet protocol suite
011_0430 gibbon
011_0436 fact date march
011_0440 citation needed april
011_0443 international atomic energy
011_0444 maseru
011_0446 argentina ho ya afrika borwa
011_0447 org wiki wikipedia
011_0449 red blood cells
011_0454 la ditaba tsa tikoloho le
011_0455 national hockey league
011_0458 boholo ba masimo a hao
011_0459 ho kenngwa tshebetsong ha melao
011_0460 motho ka mong o tlamehile
011_0462 tsosoloso ya boemo ba theshiari
011_0463 environmental protection agency
011_0468 proffesor
011_0469 ntshetsopele ya dipeo tsa oli
011_0474 cathode ray tube
011_0475 nuclear test ban
011_0489 ka ho lekola tswelopele ya
011_0495 good
011_0496 church turing thesis
011_0500 original game boy
011_0502 tshebetso ya botsebi ba saense
011_0503 pheta tshebetso ena makgetlo a
011_0504 mmalwa le traste ditho tsohle
011_0505 following world war
011_0506 empire
011_0507 nfc championship game
011_0508 ka tsela e ke keng
011_0509 new york jets
011_0510 ofisi ya lefapha le haufi
011_0511 tikoloho
011_0512 ba lakatsang ho sebetsa jwalo
011_0513 recreation
011_0514 ha puo e lahlehelwa ke
011_0515 strong nuclear force
011_0516 leng se bolelang hore ho
011_0517 tjhelete ya hae e kenang
011_0518 ding le tse ding tse
011_0519 north germanic languages
011_0520 setsi se haufi sa mesebetsi
011_0521 junior high school
011_0522 primitive recursive functions
011_0523 american film producers
011_0524 wa etsa tshebetso tsa kgwebisano
011_0525 moahi wa naha ya afrika
011_0526 ba bangata ba nang le
011_0528 congressional gold medal
011_0531 john
012_0002 motor vehicle manufacturers
012_0006 kapa hofe ho ka bang
012_0007 screen actors guild
012_0008 miller's
012_0010 bill
012_0013 good
012_0015 russian civil war
012_0017 ho kenngwa tshebetsong ha melao
012_0025 history
012_0027 nfc championship game
012_0028 united states army
012_0029 kopi e tiiseditsweng ya bukana
012_0030 north germanic languages
012_0034 saense ya tlhaho dikri diploma
012_0037 foreign direct investment
012_0038 nuclear test ban
012_0045 north west company
012_0047 tshebetso e etsang hore ho
012_0050 blood
012_0053 ya poso e sa risefuwang
012_0059 e fumaneha ka potlako weposaeteng
012_0060 junior high school
012_0061 empire
012_0062 saint john river
012_0063 supreme allied commander
012_0065 ozone layer protection
012_0066 science fiction novel
012_0073 environmental protection agency
012_0077 numeric character references
012_0081 tse ding le tse ding
012_0082 e tswang ho registrar of
012_0085 united states
012_0087 motho ka mong o tlamehile
012_0093 e leng se etsang hore
012_0094 la provinse kapa la naha
012_0096 mang ya ikemiseditseng ho nehelana
012_0101 ya pele e neng e
012_0102 united states geological
012_0104 lekgotleng la dinyewe ho tla
012_0105 ya mobu bakeng sa ntshetsopele
012_0106 court ha e le traste
012_0109 hartbeespoort
012_0112 tlhahiso ya dijothollo mobung o
012_0113 proffesor
012_0114 ditaba tse amanang le molao
012_0116 golden globe winners
012_0123 chancellorsville
012_0125 ya etsang kopo ya tokomane
012_0126 kgahlanong le dikgoka ho basadi
012_0127 federal trade commission
012_0128 nako e telele ho tiisitse
012_0129 common law jurisdictions
012_0130 armoured fighting vehicles
012_0131 cathode ray tube
012_0133 american male singers
012_0136 ha metsi pakeng tsa dikarolwana
012_0141 seng le lefilwe bakeng sa
012_0142 hore ditokomane tsa mmuso ha
012_0145 convention
012_0148 church turing thesis
012_0153 bakeng sa nako e kgutshwane
012_0154 complaints
012_0157 bridgeport
012_0158 buddhism
012_0160 tlhaho temeng ya saense ya
012_0162 new york jets
012_0167 roman catholic priests
012_0168 states environmental protection
012_0170 southwestern united states
012_0173 tse ka hodimo tsa mobu
012_0174 golden globe film
012_0175 phethahatso ya leano lena e
012_0176 moaho wa lekgotla la naha
012_0180 award winning authors
012_0181 free methodist church
012_0188 o neng o rena ditherisanong
012_0189 bafta winners people
012_0191 congressional gold medal
012_0198 tsebisa ka ho o ngolla
012_0199 ho behela taelo ka thoko
012_0200 tailor
012_0203 european economic area
012_0204 mokgwa wa elektroniki kapa khaontareng
012_0208 monroe
012_0210 fiction television series
012_0212 randfontein
012_0217 leng se bolelang hore ho
012_0219 boholo ba masimo a hao
012_0222 ya mahola le dikokwanyana ka
012_0223 tsa lekgetho di ka phethahatswa
012_0225 batlang ho etsa kopo ya
012_0228 early church fathers
012_0235 fifa world cup
012_0236 e kenella tlase mobung le
012_0237 man
012_0244 midrand
012_0250 kenngwa ha jine ya bt
012_0251 royal albert hall
012_0252 o na le diterekere le
012_0253 tsa larvae hammoho le mahe
012_0254 la ditaba tsa lehae hore
012_0255 o ne a atisa ho
012_0256 e sebetswa letsatsing leo e
012_0258 ke ke wa kgona ho
012_0261 tlhahiso ya poone le soneblomo
012_0265 sam
012_0270 harry
012_0273 ke ema ka pela lona
012_0276 nelson mandela le thabo mbeki
012_0277 o okina ahu
012_0278 united states president
012_0281 ofisi ya lefapha le haufi
012_0284 boqwabi
012_0286 strategic air command
012_0287 magnetic resonance imaging
012_0289 military coup
012_0303 van der waals
012_0309 holy hand grenade
012_0314 original game boy
012_0315 maseru
012_0317 motho a tshwerweng ho yona
012_0333 ba ngodise ho south african
012_0336 average family size
012_0340 recreation
012_0343 jwalo ka ha ho hlokeha
012_0346 dutch east india
012_0351 randburg
012_0352 television shows set
012_0356 neelane ka kopo ya hao
012_0358 sa witblits se neng se
012_0359 org wiki wikipedia
012_0360 best supporting actor
012_0363 american jewish people
012_0365 ya thuso bakeng sa ho
012_0367 hlahisa dijothollo di phahame haholo
012_0368 american film producers
012_0369 internet protocol suite
012_0370 ha eba kere e potolohisang
012_0372 gibbon
012_0375 international atomic energy
012_0377 re tsebang ho sebetsa re
012_0379 ya ho ba teng ha
012_0380 mme hona ho tla ya
012_0381 articles including recorded
012_0382 ile wa rekisetswa lefapha la
012_0384 system
012_0391 primitive recursive functions
012_0396 ya hae ntle ho lebaka
012_0403 durban
012_0406 power parity comparisons
012_0414 big bang model
012_0416 tlasa merero e hlwauweng mona
012_0418 citation needed april
012_0419 national hockey league
012_0420 strong nuclear force
012_0421 mesebetsi efe ya ho mmaraka
012_0423 lefapheng la kgwebo le indasteri
012_0427 ha re sebetsa mmoho re
012_0429 bilateral immunity agreement
012_0432 madison square garden
012_0434 leqephe la pele la foromo
012_0438 moo ho ipehilweng ka tsela
012_0440 borwa e se nang morabe
012_0442 e nang le share capital
012_0443 disebediswa tse seng di ile
012_0444 ho ntsha raporoto ya radiology
012_0445 september
012_0450 ho se ho kenwe ho
012_0453 united states census
012_0454 mang ya ka etsang kopo
012_0455 bad
012_0457 american psychiatric association
012_0458 electron transport chain
012_0462 san francisco giants
012_0463 poids et mesures
012_0464 le o mong o na
012_0466 indastering e batsi ya temo
012_0467 l cuin abbr
012_0468 dingane
012_0469 ho tholwa ha ngwana ka
012_0482 provenseng kang ho tla ba
012_0483 eo re neng re e
012_0497 potter's
012_0502 station
012_0504 united states district
012_0505 liberal arts college
013_0002 disebediswa tse seng di ile
013_0005 supreme court ruled
013_0006 boqwabi
013_0007 moscow state university
013_0010 strategic air command
013_0011 bakeng sa nako ya boholo
013_0014 nfc championship game
013_0020 le ho tempuwa ke mosebeletsi
013_0022 numeric character references
013_0025 system
013_0026 haufi le wena kapa ba
013_0027 empire
013_0028 national hockey league
013_0033 senyesemane
013_0034 power parity comparisons
013_0035 durban
013_0040 internet protocol suite
013_0042 chancellorsville
013_0044 united states census
013_0045 average family size
013_0048 feteng dikgwedi tse tharo kapa
013_0049 ha ho kgethwa dipuo tseo
013_0053 van der waals
013_0054 potter's
013_0060 motho a tshwerweng ho yona
013_0062 l cuin abbr
013_0066 saint john river
013_0084 fact date march
013_0087 valhalla
013_0092 nakwana ke ho thusa balefi
013_0093 south asian association
013_0096 military coup
013_0102 recreation
013_0103 tailor
013_0104 great lakes region
013_0108 mokgwa wa elektroniki kapa khaontareng
013_0110 mang ya ka etsang kopo
013_0113 history
013_0114 randburg
013_0118 united states president
013_0121 award winning authors
013_0124 nuclear test ban
013_0125 early church fathers
013_0128 american film producers
013_0131 best foreign language
013_0133 original game boy
013_0134 magnetic resonance imaging
013_0137 nelson mandela le thabo mbeki
013_0141 poone le dinawa tsa soya
013_0142 moo ho ipehilweng ka tsela
013_0155 ho etsa kopo ya taelo
013_0157 bilateral immunity agreement
013_0160 bill
013_0161 blood
013_0163 gibbon
013_0168 golden globe winners
013_0170 grammatical
013_0173 motor vehicle manufacturers
013_0175 mabapi le tlhahiso ya koro
013_0177 midrand
013_0178 ho ntse ho na le
013_0180 di tswela pele ho sa
013_0181 lekgotleng la dinyewe ho tla
013_0183 articles including recorded
013_0184 september
013_0188 science fiction novel
013_0202 high seas fleet
013_0203 aterese ya moo o dulang
013_0205 central
013_0208 big bang model
013_0217 seahelo sa ho lokisa tlhapi
013_0235 free methodist church
013_0237 kontane kapa ka tjheke e
013_0238 leng se bolelang hore ho
013_0240 modern orthodox judaism
013_0242 poids et mesures
013_0244 national football team
013_0246 harry
013_0248 citation needed april
013_0259 united states geological
013_0264 electron transport chain
013_0266 san francisco giants
013_0268 president george
013_0270 league baseball team
013_0271 october
013_0272 ya kopo ofising e haufi
013_0274 recent common ancestor
013_0279 convention
013_0282 screen actors guild
013_0283 hore menyenyetsi e mabapi le
013_0286 phepelo ya dijo tsa polasing
013_0287 ka mokgwa o hlakileng ho
013_0300 french west africa
013_0301 ozone layer protection
013_0303 madison square garden
013_0306 sa witblits se neng se
013_0307 efe kapa efe eo ho
013_0310 red blood cells
013_0315 holy hand grenade
013_0316 following world war
013_0325 hospital
013_0326 best supporting actor
013_0328 north germanic languages
013_0329 maano a tsona ho latela
013_0332 bridgeport
013_0334 kapa hofe ho ka bang
013_0335 fiction television series
013_0339 akhaonteng e latelang ya banka
013_0343 american psychiatric association
013_0347 formal diplomatic relations
013_0349 borwa e se nang morabe
013_0353 le ho romela ditokomane ho
013_0355 russian civil war
013_0356 national science foundation
013_0367 federal trade commission
013_0368 new york yankees
013_0369 monroe
013_0377 bafta winners people
013_0385 nako e telele ho tiisitse
013_0386 fact date august
013_0387 madison square garden
013_0388 miller's
013_0392 tsa larvae hammoho le mahe
013_0395 ho tshwarella nako e telele
013_0396 org wiki wikipedia
013_0399 church turing thesis
013_0402 sebetsa jwalo ka borasaense ba
013_0403 buddhism
013_0407 ya thuso bakeng sa ho
013_0410 united states army
013_0411 palestine liberation organization
013_0412 golden globe film
013_0415 red blood cells
013_0423 southwestern united states
013_0425 centrally planned economy
013_0426 tikoloho
013_0427 common law jurisdictions
013_0431 primitive recursive functions
013_0432 foreign direct investment
013_0437 indastering e batsi ya temo
013_0439 environmental protection agency
013_0441 ke ke wa kgona ho
013_0442 mesebetsi efe ya ho mmaraka
013_0443 royal albert hall
013_0444 television shows set
013_0447 proffesor
013_0452 cathode ray tube
013_0460 junior high school
013_0465 mang ya ikemiseditseng ho nehelana
013_0466 complaints
013_0475 fifa world cup
013_0477 kenngwa ha jine ya bt
013_0479 randfontein
013_0486 baka mathata temong ya dijothollo
013_0488 international atomic energy
013_0496 islamic conference oic
013_0501 sebediswang wa ho phethola mobu
013_0504 united states district
013_0509 nebula award winning
013_0510 billy
013_0513 national baseball hall
013_0524 science fiction hall
013_0526 liberal arts college
014_0006 pro football hall
014_0007 ice hockey team
014_0014 e ise embasing kapa misheneng
014_0015 di fetwa ka bohlwahlwa ke
014_0022 europe music
014_0024 wa batswadi kapa mohlokomedi wa
014_0029 ba bolaodi ba bophelo bo
014_0035 international astronomical union
014_0040 re tla tswela pele ka
014_0041 ho sebedisa thaere e kgolwanyane
014_0044 sexually transmitted diseases
014_0048 imperial japanese navy
014_0049 petroleum exporting countries
014_0052 nakong ya dikgwedi tsa hlabula
014_0053 war political
014_0055 theko ya sehlahiswa le bongata
014_0058 boyce
014_0062 high middle ages
014_0063 average life expectancy
014_0065 billy
014_0071 la nakwana le lokelwang ho
014_0075 pele ho ka jalwa sejothollo
014_0078 united states declaration
014_0080 atlantic treaty organization
014_0082 american free trade
014_0083 national public radio
014_0085 management
014_0086 le ngodisitsweng mona afrika borwa
014_0089 liberal arts college
014_0090 le hore re kgone ho
014_0091 frank lloyd wright
014_0092 dilemong tse ngata tse fetileng
014_0093 national baseball hall
014_0094 saense ya lekgotleng la molao
014_0095 roodepoort
014_0096 ho thehwa ha diyuniti tsa
014_0100 temeng ya saense ya lekgotleng
014_0102 aterese le nomoro ya mohala
014_0105 rapid economic growth
014_0109 fane ka nomoro ya akhauntu
014_0110 pimville
014_0112 hubble space telescope
014_0113 palestinian national authority
014_0114 ikopanye le ofisi ya lefapha
014_0115 tse ka hodimo ho tse
014_0116 batshwaruwa
014_0121 e bile wa bohlokwa ho
014_0123 ferry
014_0124 itseng ntle le ho ama
014_0126 northern
014_0129 bethal
014_0133 le hore ho tle ho
014_0134 atlantic
014_0135 video game developers
014_0137 le nngwe feela afrika borwa
014_0138 jwalo ka ha ho bontshitswe
014_0139 early morning hours
014_0143 dennilton
014_0145 inshorense ya tse sebediswang mobung
014_0147 e ne e le sebaka
014_0153 wa setjhaba lawrence mushwana o
014_0155 islamic conference oic
014_0157 nobel prize winners
014_0158 british foreign secretary
014_0161 tsa palamente di tlameha ho
014_0165 francisco bay area
014_0170 tlosa pompo pele ba ilo
014_0171 united states district
014_0172 boston red sox
014_0173 ofe kapa ofe wa mmuso
014_0175 dubious date april
014_0176 president harry
014_0178 rephaboliki
014_0179 dikgopo tsa mahlaku hloohong ya
014_0187 tshwaneleha le moruo wa tshebetso
014_0188 samuel's
014_0190 ford motor company
014_0191 pakeng tsa batho ba babedi
014_0194 dikgeong tsa mesebetsi ya sehlopha
014_0195 kopo ya bodulo ba saruri
014_0196 roman catholic archbishops
014_0198 nang le tokelo ya ho
014_0201 ya naha e tshwereng motho
014_0202 western united states
014_0203 o nka kilograma e le
014_0204 republican party united
014_0205 fact date january
014_0207 rona ba ho lwantsha botlokotsebe
014_0208 european union member
014_0212 ya ditaba tsa lehae kapa
014_0213 garrick
014_0214 kenya tshebetsong mokgwa wa ho
014_0216 mokopi le mohatsa hae ba
014_0222 mahola ke sera sa pele
014_0226 sound
014_0229 united states air
014_0232 united states navy
014_0234 meade
014_0235 memphis
014_0236 khopi e netefaditsweng ya bukana
014_0237 ha o a dumellwa ho
014_0241 moo e leng hore ho
014_0243 black sea coast
014_0245 old garden roses
014_0246 mekgatlo e adimanang ka tjhelete
014_0248 hloleha ho etsa jwalo ho
014_0249 valence bond theory
014_0250 leondale
014_0251 petroleum exporting countries
014_0252 boafrika borwa ba rona bo
014_0254 dipalopalo
014_0258 close air support
014_0266 ha eba poone e iswa
014_0271 london
014_0272 tsa diporofensi di a nahanwa
014_0274 afrika borwa jwalo ka ha
014_0278 german air force
014_0282 king james version
014_0283 ho tswela pele ho ya
014_0291 transvala
014_0297 professional american football
014_0298 austrian school economists
014_0299 ditletlebo
014_0301 northern mariana islands
014_0304 george
014_0306 phetoho efe kapa efe e
014_0308 ya hao e tla lekolwa
014_0309 american political writers
014_0311 major professional sports
014_0312 ho feta ka moo ho
014_0314 ho ngodisa setsi sa tlhahlobo
014_0318 hong kong island
014_0320 le kgahleho bophelong ba motletlebi
014_0321 kopanelo ya boitshwaro bo botle
014_0322 ba thupelo ba lokela ho
014_0323 dikokwanyana ka thibelo ya mefuta
014_0325 asian financial crisis
014_0326 ancient near east
014_0328 ba puo e tla hloka
014_0330 box office success
014_0331 ho bohlokwa ka ho fetisisa
014_0338 notable examples include
014_0339 ba badudi ba saruri ba
014_0343 polasi le nang le boleng
014_0345 clarify date march
014_0351 kapa badudi ba saruri ba
014_0356 ditlhaloso tsa lengolo la truste
014_0359 dintho ka mokgwa o sa
014_0363 new york jets
014_0364 morao ka dilemo tse ngata
014_0366 ho itsebisa jwalo ka ntate
014_0367 pope benedict
014_0368 osama bin laden
014_0369 efe kapa efe ya yona
014_0370 eldorado
014_0374 billion years ago
014_0378 kopo ya ho ngodisa khampani
014_0383 nebula award winning
014_0384 ho kganna ya borutehi bo
014_0386 letowana
014_0387 functional programming languages
014_0392 ya south african revenue service
014_0395 ludwig von mises
014_0396 united states government
014_0397 ho tshela oli e ntjha
014_0400 army occupied cypriot
014_0402 hard disk drive
014_0404 united states dollar
014_0406 comic book series
014_0411 kansas city royals
014_0412 persian gulf states
014_0415 mmala o motsho le bosweu
014_0416 california state university
014_0417 leng hore ha ho hlokehe
014_0419 ho tla nne ho dule
014_0421 ho ngodisa khampani e poraefete
014_0422 cognitive behavioral therapy
014_0423 aung san suu
014_0424 e na le dimojule tse
014_0425 tlhekelo
014_0427 grisly
014_0428 marcel
014_0431 masimo a mang le a
014_0432 phahameng ya poone le mmaraka
014_0433 american sign language
014_0435 open source initiative
014_0436 ba ratang naha ya habo
014_0439 clarify date february
014_0440 re tla dula re ntse
014_0442 tone ka nngwe ho tsamaisa
014_0445 kopo ya hao e se
014_0448 ba hore khopi ya foromo
014_0450 ho ngodisa jwalo ka setsebi
014_0451 ya ngodiso e sa kgutlisweng
014_0453 hlalositsweng bakeng sa ditjhelete tse
014_0454 sa ntsaneng a le manyane
014_0458 ka mokgwa o hlwahlwa ho
014_0459 american television actors
014_0465 motherwell
014_0466 bo botjha le ho sebedisa
014_0470 puo ya bajete le setatemente
014_0471 khopi ya rasiti e saennweng
014_0474 positive real numbers
014_0475 south sandwich islands
014_0478 american voice actors
014_0479 melbourne football club
014_0483 ho sebedisa lebitso le molaong
014_0486 tiisitse hore ha ho hlwahlwa
014_0487 american nobel laureates
014_0488 western european countries
014_0489 of access to information act
014_0490 thibelang lefu ka mora ketsahalo
014_0494 ludwig von mises
014_0495 american musical theatre
014_0498 guru granth sahib
014_0499 ya seteraeke kapa ho notlellwa
014_0503 e ka nka dikgwedi tse
014_0504 essential fatty acids
014_0505 mong le e mong ya
014_0508 american short story
014_0511 john von neumann
014_0512 ya nang le phemiti ya
014_0513 kapa ofe ya batlang ho
014_0514 hore ditho tsa palamente di
014_0515 clarify date november
014_0517 ya hao setatementeng sa banka
014_0518 winter olympic games
015_0003 e tiiseditsweng ha ditokomane di
015_0013 rapid economic growth
015_0019 old garden roses
015_0025 imperial japanese navy
015_0027 german air force
015_0029 national public radio
015_0035 army occupied cypriot
015_0039 state university alumni
015_0044 austrian school economists
015_0045 catherine
015_0046 ya hao e tla lekolwa
015_0055 united states began
015_0056 war political
015_0057 high middle ages
015_0060 baemedi ba porofensi ho ncop
015_0062 king james version
015_0066 dilemong tse ngata tse fetileng
015_0076 atlantic
015_0080 box office success
015_0083 kgothalletswa ho ithuta dipuo tse
015_0094 ho ngodisa setsi sa tlhahlobo
015_0096 hloleha ho etsa jwalo ho
015_0097 notable examples include
015_0104 professional american football
015_0107 states district court
015_0111 ludwig von mises
015_0114 british west indies
015_0115 europe music
015_0117 international astronomical union
015_0120 ho fana ka beile le
015_0121 persian gulf states
015_0123 park
015_0131 aung san suu
015_0133 ford motor company
015_0136 animated television series
015_0141 royal dutch shell
015_0142 larry
015_0154 tsa fuwa maemo a tlase
015_0156 billion years ago
015_0158 moralo wa tshebetso wa naha
015_0159 ya naha le ya matjhaba
015_0161 meade
015_0162 new york jets
015_0163 president harry
015_0164 hloka tumello e ikgethang e
015_0165 music awards winners
015_0166 pele ho ka jalwa sejothollo
015_0168 ofisi ya iss ya afrika
015_0169 close air support
015_0172 frank lloyd wright
015_0174 functional programming languages
015_0178 melbourne football club
015_0184 e ya weposaeteng ya lefapha
015_0187 palestinian national authority
015_0188 sexually transmitted diseases
015_0190 dilemong tse mmalwa tse fetileng
015_0191 dubious date april
015_0192 ba thupelo ba lokela ho
015_0193 tsa tlhahlobo tse molaong mme
015_0196 islamic conference oic
015_0197 major professional sports
015_0198 ho thola ngwana ka molao
015_0199 etsa kopo bakeng sa phemiti
015_0201 thibelang lefu ka mora ketsahalo
015_0202 sa silafatsa phepelo ya metsi
015_0204 grisly
015_0206 tshenyo e kgolo dimeleng tse
015_0207 ya dipuo tsa motswalla tse
015_0208 a sa siya wili e
015_0209 average life expectancy
015_0210 jwalo ka ha ho bontshitswe
015_0211 ditletlebo
015_0212 wa provinse ya bophelo bo
015_0214 tse ikgethileng tsa kgatello di
015_0217 mabapi le tshireletso ya dijo
015_0218 khopi e netefaditsweng ya bukana
015_0220 ditlhaloso tsa lengolo la truste
015_0221 ho bohlokwa ka ho fetisisa
015_0224 sekgahla sa ho mela ha
015_0226 california state university
015_0227 matsatsi a leshome eo ka
015_0230 ke notary public kapa mokhomishenara
015_0232 ka kamano ya ho se
015_0233 basebeletsi ba lefapha la ditaba
015_0235 african unity oau
015_0236 morao ka dilemo tse ngata
015_0237 national baseball hall
015_0239 hard disk drive
015_0240 sa ntsaneng a le manyane
015_0241 ho tswa ho moabi ya
015_0242 ya hao ya boitsebiso kapa
015_0243 make extensive use
015_0244 a ka nna a fafatswa
015_0247 liberal arts college
015_0249 phetoho efe kapa efe e
015_0250 temeng ya saense ya lekgotleng
015_0251 random access memory
015_0252 lefatshe la polasi le nang
015_0253 tswela pele ka lenaneo la
015_0254 security assistance force
015_0255 diporofensi di a nahanwa boemong
015_0256 ya tse romellwang ka ntle
015_0257 pakeng tsa batho ba babedi
015_0258 hong kong island
015_0259 game boy advance
015_0260 rephaboliki
015_0261 pope benedict
015_0262 di ka nna tsa fetoha
015_0264 ntlafatsa polokeho le tshireletso ya
015_0265 black sea coast
015_0266 kenya tshebetsong mokgwa wa ho
015_0267 united states air
015_0268 batlang ho fumana boahi ba
015_0269 e ne e le sebaka
015_0270 tumellano ya nakwana le seng
015_0271 ka hara naha ya afrika
015_0272 mane ho isa ho a
015_0273 tlameha ho balwa ka botebo
015_0274 sebaka moo sepudutsi se ke
015_0276 poone ya selelekela mabapi le
015_0277 western united states
015_0279 ka puo ya kgetho ya
015_0282 early morning hours
015_0284 semmuso ya lekgetho e ka
015_0289 tlameha ho ba karolo ya
015_0292 puo ya bajete le setatemente
015_0294 ke boikarabelo ba moahi e
015_0295 dikgeong tsa mesebetsi ya sehlopha
015_0298 ho tshela oli e ntjha
015_0299 british foreign secretary
015_0300 ho kenyelletswa le ditaba tse
015_0305 metsi a ka nnang a
015_0306 tshebediso e phahameng ya sesebediswa
015_0307 ya ba mmalwa e ngodisitsweng
015_0308 atlantic treaty organization
015_0309 asian financial crisis
015_0310 tsamaiso ya sehlopha sa boithuto
015_0311 clarify date february
015_0312 northern
015_0314 sena se ka qetella ka
015_0319 european union member
015_0321 tsa theko ya sehlahiswa le
015_0323 kgannelang tlhaselong e eketsehang ya
015_0325 roman catholic archbishops
015_0326 ya ditaba tsa lehae kapa
015_0327 pimville
015_0328 ancient near east
015_0329 a hlahisa dikgwebo tsa tsona
015_0330 ke wa qobella molemi ho
015_0331 south
015_0332 inshorense ya tse sebediswang mobung
015_0333 ha o a dumellwa ho
015_0334 osama bin laden
015_0335 memphis
015_0336 american voice actors
015_0338 petroleum exporting countries
015_0339 episcopal church usa
015_0342 nobel prize winners
015_0343 ho feta ka moo ho
015_0346 american television actors
015_0347 american musical theatre
015_0351 bethal
015_0352 american free trade
015_0353 united states navy
015_0355 eldorado
015_0356 dennilton
015_0358 science fiction hall
015_0360 transvala
015_0361 video game developers
015_0366 tsa diporofensi di a nahanwa
015_0370 mang le a mang a
015_0371 ya south african revenue service
015_0374 tse tshwanetseng ho elwa hloko
015_0377 united states district
015_0378 ya makgulo bakeng sa kgwebo
015_0379 ya bt papisong le mekgwa
015_0380 francisco bay area
015_0386 knights grand cross
015_0388 samuel's
015_0398 hauhelele
015_0399 london
015_0401 borwa di tlameha ho ngodiswa
015_0406 positive real numbers
015_0410 roodepoort
015_0417 foromo ya kopo ka dikopi
015_0418 ena ka sepheo sa ho
015_0428 ena ke e nngwe ya
015_0431 western european countries
015_0435 gcis e ka fana ka
015_0438 sa moralo wa puo ho
015_0443 united states declaration
015_0445 american political writers
015_0446 kansas city royals
015_0448 islamic conference oic
015_0449 o nka kilograma e le
015_0456 aterese le nomoro ya mohala
015_0457 republican party united
015_0459 cognitive behavioral therapy
015_0461 religious
015_0462 of access to information act
015_0463 monetary fund imf
015_0464 hlahisa ditabatabelo le mehopolo ya
015_0466 le moemedi wa afrika borwa
015_0467 george
015_0468 latela dipehelo tsa molao wa
015_0469 le kgahleho bophelong ba motletlebi
016_0001 ho fana ka beile le
016_0002 american sign language
016_0003 extension
016_0005 islamic conference oic
016_0007 united states began
016_0009 state university alumni
016_0015 ho etsa diteko tsa hiv
016_0016 old garden roses
016_0020 khopi ya rasiti e saennweng
016_0024 afidaviti eo ho entsweng kano
016_0025 haufi tsa ntshetsopele ya setjhaba
016_0027 nang le tokelo ya ho
016_0028 south sandwich islands
016_0030 osama bin laden
016_0034 e poraefete ya ho fihlella
016_0036 imperial japanese navy
016_0037 nyetseng nyetsweng eo mohatsae e
016_0038 ferry
016_0039 kgothalletswa ho ithuta dipuo tse
016_0040 old east norse
016_0041 nna tsa kgannela tshenyong e
016_0042 hore ditho tsa palamente di
016_0048 ya dipuo tsa motswalla tse
016_0050 europe music
016_0053 sehla se hlahlamang sa ho
016_0060 united states government
016_0062 le hore re kgone ho
016_0063 western united states
016_0064 ke wa qobella molemi ho
016_0065 le ho haha setjhaba sa
016_0066 tlameha ho felehetsa kopo ka
016_0067 republican party united
016_0069 fihlwang ho yona ya mohlahisi
016_0070 ya hao setatementeng sa banka
016_0071 ya south african revenue service
016_0072 semmuso ya lekgetho e ka
016_0073 union member states
016_0074 american science fiction
016_0075 asian financial crisis
016_0080 leo mobu o leng ho
016_0084 united states declaration
016_0088 ho thola ngwana ka molao
016_0089 tse ding tsa dintho tseo
016_0091 catherine
016_0092 london
016_0093 basebeletsi ba lefapha la ditaba
016_0095 weposaeteng ya lefapha la temo
016_0097 atlantic treaty organization
016_0101 inshorense ya tse sebediswang mobung
016_0102 ofisi ya iss ya afrika
016_0106 functional programming languages
016_0107 tiisitse hore ha ho hlwahlwa
016_0109 grand
016_0110 wa ho qala wa leloko
016_0113 human rights record
016_0117 rapid economic growth
016_0122 united states navy
016_0123 hubble space telescope
016_0124 ho bohlokwa ka ho fetisisa
016_0125 tlameha ho balwa ka botebo
016_0127 ho phetholwa ha pele ha
016_0129 ba bolaodi ba bophelo bo
016_0130 test ban treaty
016_0132 moo o ile wa sebediswa
016_0134 ho ngodisa khampani e poraefete
016_0135 kiana
016_0137 tlhakiso ya mahlale a puo
016_0138 melbourne football club
016_0139 john von neumann
016_0140 ho sebedisa thaere e kgolwanyane
016_0141 tsa tlhahlobo tse molaong mme
016_0143 a dintwa tsa ka malapeng
016_0145 northern
016_0146 nobel prize winners
016_0148 tsa diporofensi di a nahanwa
016_0149 american television actors
016_0151 jwalo ka ha ho bontshitswe
016_0152 kenya tshebetsong mokgwa wa ho
016_0153 ka puo la afrika borwa
016_0154 guru granth sahib
016_0155 new york jets
016_0156 mokga oo a etsang kopo
016_0159 dilemong tse ngata tse fetileng
016_0162 bang ba tlosa pompo pele
016_0169 e ise embasing kapa misheneng
016_0170 phemiti ya ditswantle ya bongaka
016_0174 tshebetso tsa lekgetho la kuno
016_0176 european union member
016_0177 ho balwa ka botebo le
016_0178 dilemong tse mmalwa tse fetileng
016_0179 aterese le nomoro ya mohala
016_0180 khopi e netefaditsweng ya bukana
016_0185 dife kapa dife tse amanang
016_0186 boramesebetsi ba lokela ho saena
016_0188 motheo
016_0192 george
016_0193 american musical theatre
016_0195 close air support
016_0196 eo ba nang le yona
016_0197 american nobel laureates
016_0198 hloka bokgoni ba ho nehelana
016_0199 frank lloyd wright
016_0202 e leng commission for conciliation
016_0204 british foreign secretary
016_0207 essential fatty acids
016_0210 ho itsebisa jwalo ka ntate
016_0215 tsa palamente di tlameha ho
016_0216 kapa ofe ya batlang ho
016_0217 positive real numbers
016_0218 moahi wa afrika borwa kapa
016_0219 moo e leng hore ho
016_0220 ba mmalwa le traste ditho
016_0221 dipalopalo
016_0222 bethal
016_0225 tswa dinaheng tsa ka ntle
016_0226 black sea coast
016_0227 notable examples include
016_0228 ho ngodisa setsi sa tlhahlobo
016_0231 francisco bay area
016_0234 morao ka dilemo tse ngata
016_0236 keketseho ya boleng ba masimo
016_0238 sound
016_0242 management
016_0244 hloleha ho etsa jwalo ho
016_0246 hard disk drive
016_0247 sefe sa tlhahlobo ya laesense
016_0248 united states air
016_0250 sa moralo wa puo ho
016_0251 sexually transmitted diseases
016_0253 pro football hall
016_0254 states unemployment rate
016_0258 ba dilemo tse ka hodimo
016_0260 united states dollar
016_0261 episcopal church usa
016_0262 states district court
016_0263 wayne state university
016_0264 kuno e phahameng ya dijothollo
016_0265 ya naha e tshwereng motho
016_0268 northern mariana islands
016_0269 music awards winners
016_0270 sa silafatsa phepelo ya metsi
016_0271 samuel's
016_0272 le ngodisitsweng mona afrika borwa
016_0274 ludwig von mises
016_0276 ho kganna ya borutehi bo
016_0277 ho feta ka moo ho
016_0280 ho ya ka dipehelo tsa
016_0281 clarify date november
016_0283 video game developers
016_0284 di fetwa ka bohlwahlwa ke
016_0286 national public radio
016_0288 nka matsatsi a fihlang ho
016_0289 institjhute
016_0291 religious
016_0293 puo ya bajete le setatemente
016_0294 comic book series
016_0295 hauhelele
016_0296 pimville
016_0301 game boy advance
016_0302 kopo e tlameha ho felehetswa
016_0303 ya bt papisong le mekgwa
016_0304 itseng ntle le ho ama
016_0305 internal combustion engine
016_0306 ya sebolayakokwanyana seo o se
016_0307 tse ntjha tsa ho banka
016_0310 ke mohlodi wa bohlokwa wa
016_0314 ke boikarabelo ba moahi e
016_0316 fane ka nomoro ya akhauntu
016_0320 di ka qojwang ka teng
016_0321 chinese civil war
016_0322 molaotheo wa afrika borwa o
016_0323 setsheng sa bafu sa poraefete
016_0325 ditlhaloso tsa lengolo la truste
016_0326 united nations high
016_0327 ya hao ya taelo ya
016_0328 memphis
016_0330 ka mora nako e itseng
016_0333 tsamaiso ya sehlopha sa boithuto
016_0334 motherwell
016_0337 king james version
016_0338 ha ho ne ho ena
016_0339 winter olympic games
016_0340 ya ba mmalwa e ngodisitsweng
016_0342 african unity oau
016_0344 halleck
016_0345 ka potlako ka ho ya
016_0348 american musical theatre
016_0349 ancient near east
016_0351 ya tlhahisoleseding tshebetsong ya toka
016_0353 lengolo la tumello haeba o
016_0354 western united states
016_0358 hong kong island
016_0359 security assistance force
016_0360 bahwebi ba sa sebedise tlwaelo
016_0362 fact date january
016_0364 ikemetseng
016_0368 e ya weposaeteng ya lefapha
016_0369 american short story
016_0370 marcel
016_0372 pope benedict
016_0374 mananeo a mmuso a ho
016_0375 real gdp growth
016_0376 malwetse a pustule a bakwang
016_0378 ludwig von mises
016_0379 american voice actors
016_0380 arizona state university
016_0382 dennilton
016_0383 ya makgulo bakeng sa kgwebo
016_0384 major professional sports
016_0385 of access to information act
016_0386 le nngwe feela afrika borwa
016_0388 ka hara lekgotla la naha
016_0392 le tsela e telele eo
016_0393 tse lokelang ho ba ka
016_0398 o nka kilograma e le
016_0399 phasepoto ya hao ya afrika
016_0400 atlantic slave trade
016_0401 bo botjha le ho sebedisa
016_0404 roodepoort
016_0406 ho fafatsa kgahlanong le mahola
016_0407 ho tshela oli e ntjha
016_0408 box office success
016_0409 pele ho ka jalwa sejothollo
016_0411 ka hara naha ya afrika
016_0412 roman catholic archbishops
016_0413 grisly
016_0415 le mekgwa e meng ya
016_0416 california state university
016_0417 sekgahla sa ho mela ha
016_0418 jewish american writers
016_0419 ho ba motswadi wa letholwa
016_0420 clarify date march
016_0422 diporofensi di a nahanwa boemong
016_0425 lejwe
016_0426 kansas city royals
016_0427 e batlang e le ntle
016_0428 leano le ona o hlokometse
016_0432 tlhahisoleseding e fumanwe bukaneng ya
016_0433 kansas state university
016_0434 international astronomical union
016_0435 war political
016_0436 ho hloleha ho etsa jwalo
016_0440 e ne e le sebaka
016_0442 eldorado
016_0443 di ka nna tsa fetoha
016_0445 park
016_0446 batlang ho fumana boahi ba
016_0448 early morning hours
016_0451 social democratic party
016_0452 ho bonahala eka ha ho
016_0453 palestinian national authority
016_0454 president harry
016_0455 ya ho ba teng ho
016_0456 ka baka la sephetho se
016_0460 letowana
016_0461 ho kenyelletswa le ditaba tse
016_0462 make extensive use
016_0463 tse ikgethileng tsa kgatello di
016_0465 persian gulf states
016_0466 average life expectancy
016_0468 le kgahleho bophelong ba motletlebi
016_0469 ba puo e tla hloka
016_0470 pakeng tsa batho ba babedi
016_0471 tlameha ho ba karolo ya
016_0472 chinese communist party
016_0473 billion years ago
016_0475 e bile wa bohlokwa ho
016_0478 dubious date april
016_0479 high middle ages
016_0480 dintlha dife kapa dife tse
016_0481 le tumello e ngotsweng fatshe
016_0485 form hydrogen bonds
016_0487 international criminal court
016_0488 cognitive behavioral therapy
016_0491 hloka bokgoni ba ho phetha
016_0492 treaty organization nato
016_0493 etsa diketso tse hlabisang dihlong
016_0494 ya beke le beke ya
016_0495 ditokomane tse latelang tse tshehetsang
016_0496 terekere le disebediswa tsa temo
016_0497 missing living people
016_0498 lokela ho tlatswa ke bajalefa
016_0499 received mixed reviews
016_0500 palamente ya rephaboliki ya afrika
016_0501 native american tribes
016_0502 lengolo la bopaki la phytosanitary
016_0503 guano islands act
016_0505 ya tswelang pele ka mosebetsi
016_0506 tlameha ho tlatswa ke mokopi
016_0508 a mmalwa ho ya dibekeng
016_0509 central processing unit
016_0512 united states federal
016_0513 david
016_0514 le ona o hlokometse hore
016_0515 nka nako e telele ho
016_0517 united arab emirates
016_0519 thuto ya kalafo ya tsa
016_0524 ba lenaneo la ntshetsopele ya
017_0003 mohale
017_0008 ditho tsa setjhaba di ka
017_0009 tse latelang di tshwanetse ho
017_0010 kimberley
017_0011 canada e simollang mahareng a
017_0012 ho south african revenue service
017_0013 dumela hore ha re sebetsa
017_0018 mimosa
017_0020 ho molemo ho feta ho
017_0021 ho ngodisa bakeng sa vat
017_0023 san
017_0027 bulawayo
017_0029 e mabapi le puo ya
017_0030 feberu e tshehla e tletseng
017_0031 ha eba di sa sebediswe
017_0035 re tle re kgone ho
017_0039 hara naha ya afrika borwa
017_0041 phumantsho ya ditshebeletso tsa mahala
017_0042 willows
017_0043 buke
017_0045 ho bohlokwa ho nwa dipilisi
017_0046 diinstitushene tse ngata tse fapaneng
017_0047 nang le boiphihlelo bo bonyane
017_0048 haeba bonkgetheng ba feta palo
017_0049 europe
017_0054 ena di tshwanetse ho nahanwa
017_0061 hantle kelellong kapa o ferekane
017_0062 ba le seabo ha basadi
017_0065 ho latelwa melao le melawana
017_0066 pedi tsa boholo ba dinepe
017_0068 puo tsa afrika ka botsona
017_0072 di ka nka dibeke tse
017_0073 sa nyalang nyalwang kapa ya
017_0078 tlameha ho felehetsa kopo ka
017_0079 le tshenyo e ka bakwang
017_0083 dibakeng tse nang le difasilithi
017_0084 ditlhaloso tsa lengolo la truste
017_0091 rephaboloki
017_0092 bo botle sa bongaka ba
017_0096 bao o ka iteanyang le
017_0098 boikgathollo le dipapadi hammoho le
017_0100 energy
017_0105 latela palo ya dikopo tse
017_0106 hao ya boitsebiso kapa setifikeiti
017_0107 tsa ntlo ya seboka ya
017_0108 diporofensi di a nahanwa boemong
017_0109 moo ho ipehilweng ka tsela
017_0110 e tiiseditsweng ha ditokomane di
017_0112 sephetho sa kopo ya hao
017_0114 boahi ba naha e nngwe
017_0116 poelano le bonamodi e leng
017_0118 ho se na maemo a
017_0121 mabapi le kadimo ya tjhelete
017_0124 hore ho be bonolo ho
017_0125 sebokonyana se ntseng se hola
017_0126 ba naha ya habo rona
017_0130 melbourne
017_0131 o nepahetseng nakong ya matsatsi
017_0132 conventions
017_0135 bo sebediswa e le mokgwa
017_0136 second
017_0137 ditswantle le diphahlo tse romelwang
017_0141 thuso ya bophelo bo botle
017_0142 mekgwa ya sejwalejwale ya taolo
017_0144 bakeng la dikgokahano tsa semolao
017_0147 le hore re kgone ho
017_0148 ho fihlella selemong sa boraro
017_0150 tshwanetse ho lefella tshebediso ya
017_0152 motheo o hatella hore dipuo
017_0153 phethahatso ya leano lena e
017_0155 thibelang lefu ka mora ketsahalo
017_0158 romela hlapi ho tswa ntle
017_0163 di tshwanetse hore di se
017_0166 le letjha la ditaba tsa
017_0167 netefatsa hore melemo ya kgolo
017_0169 moaho wa seboka sa naha
017_0171 tjhona ho bakilweng ke bohlaswa
017_0172 leshome eo ka yona dikutu
017_0173 bohle re tla dumellana ka
017_0174 batlang e le ntle e
017_0175 naples
017_0176 le basebeletsi ba lefapha la
017_0177 ka ho fetisisa ke sa
017_0178 leboa
017_0180 ho tshwanetswe hore ho hokelwe
017_0181 ba sebedisang matsoho ho buwa
017_0182 e ile ya ntshetswa pele
017_0183 ya tswang naheng ya ka
017_0185 pehelo ya hore e tla
017_0186 tshwerwe tlasa mental health act
017_0188 diforomo tsa kopo di fumaneha
017_0191 le dibaktheria mabapi le bolwetse
017_0196 botle bakeng sa maaforika borwa
017_0199 o ngodiswe rejistareng ya baahi
017_0205 peo ya ona e ka
017_0206 motlatsi wa mopresidente wa riphaboliki
017_0208 le tshebetso e le nngwe
017_0210 re bo phetseng le meetlo
017_0212 ho kgothaletsa tshebetso ya botsebi
017_0213 foromo ena e fuwe motho
017_0216 moo ntate wa hae a
017_0217 molaotheo wa rephaboliki ya afrika
017_0218 ya dipuo tsa afrika borwa
017_0222 lebaka ke hore maemo a
017_0225 seo o leng ho sona
017_0230 hore setjhaba se lekole ditaba
017_0233 cacadu
017_0234 ke dintho tse tshwanetseng ho
017_0236 seteraeke kapa ho notlellwa ka
017_0239 ya dilemo tse tharo ho
017_0241 boitshwaro ya bahlanka ba setjhaba
017_0242 nka mehato mabapi le motlatsi
017_0243 dihlopha tse tinngweng meyetla ho
017_0245 ya lekgetho la ho qala
017_0246 ho tlala ho feta tekano
017_0248 jwalo ka o motjha mme
017_0249 mdda
017_0251 tse tlang ho dumella moithuti
017_0253 jwalo ka ha e le
017_0254 terekere le disebediswa tsa polasing
017_0255 ba ne ba atisa ho
017_0256 khoutu e poraefete ya ho
017_0261 thero ya puo e tsepame
017_0263 leeba
017_0264 sebakeng seo ho sona disebediswa
017_0267 ho thibela le ho lwantsha
017_0268 bakeng la tsebo ya mosebetsi
017_0269 puo le ela hloko dipehelo
017_0270 ba ntseng ba thuthuha ke
017_0271 kopo ya katoloso ya nako
017_0274 bolaodi bo ka bonang e
017_0275 le hlalosang hore ke ka
017_0276 zimmermann
017_0279 dife kapa dife tse dumelletsweng
017_0280 ho di sheba nakong ya
017_0281 le teng setjhabeng moo dipuo
017_0282 ka baka leo o ka
017_0284 mabapi le phethahatso ya leano
017_0285 lefapha la bophelo bo botle
017_0287 halleck
017_0291 sebediswa iteanye le rona link
017_0294 jwaloka ha ho hlakisitswe tumellanong
017_0296 e eketsehileng ya ditshebeletso tsa
017_0303 batho ba mmalwa le traste
017_0304 ba mekgwa ya ho nosetsa
017_0307 ho chartered accountant se bolelang
017_0315 nang le tokelo ya ho
017_0318 batla ho sa baballe tjhelete
017_0319 sebediswang wa ho phethola mobu
017_0323 boulders
017_0324 hore ho hokelwe phetolelo e
017_0325 lekgotla la bana moo kopo
017_0326 rephaboliking
017_0328 popeho ya pustule tse fifetseng
017_0330 barberton
017_0331 secretariat
018_0001 tokiso ya motheo ya enjene
018_0003 secretariat
018_0008 di tla lokela ho tsamaisa
018_0010 new
018_0012 e tla nkuwa e le
018_0016 leng ka tlase ho dilemo
018_0024 mong ya nang le tokelo
018_0028 belfast
018_0035 tshenyo e sa hlokeheng e
018_0039 e ka loka dibekeng tse
018_0041 dipuo tse neng di tinngwe
018_0042 barkley
018_0051 letsatsi le leng le le
018_0052 tlhaho ho hlokwa hore ba
018_0054 tumello ya setswantle ya ngaka
018_0060 popeho ya pustule tse fifetseng
018_0066 la yona ha feela le
018_0070 boitshwaro bo botle le ditabatabelo
018_0072 kaofela tsa mobu o ka
018_0077 gibbon
018_0085 hlakubele
018_0091 ba etsa bonnete ba hore
018_0094 ho ba teng ha lenyalo
018_0095 wa rona wa motheo o
018_0098 ho teng mefuta e fapaneng
018_0104 proyset
018_0107 crocker
018_0108 biling ya rona ya ditokelo
018_0109 di ka qojwang ka teng
018_0110 ya b di be tharo
018_0113 ana a mararo a kgutlotharo
018_0120 bend
018_0125 fochville
018_0126 barekisi ba thepa e ngata
018_0129 sharonsville
018_0130 hore ditokomane tsa mmuso ha
018_0132 pele tsa mabitso le fane
018_0133 a salla ka hara pompo
018_0134 filweng matla semolao ho sebetsana
018_0136 mesebetsi
018_0144 ya ho hlaha ha peo
018_0145 ha eba masimo a sebedisetswa
018_0149 dijothollo di ka nna tsa
018_0150 mme re etse bonnete ba
018_0151 ho sebetsa le dinaha tse
018_0154 ka tlhahisoleseding ya mokgwa wa
018_0155 tsa ho iteanya le motho
018_0158 katleho teko e beuweng ho
018_0161 woodford
018_0166 sethatho ho iswa ho e
018_0171 minerals
018_0173 dikopano kapa mesebetsi e itseng
018_0177 o bopilwe butlebutle ka mokgwa
018_0179 empa ho sa felle moo
018_0182 jwalo ka browser ya hao
018_0187 thapama kantle le matsatsi a
018_0191 dikopano tsa dikomiti tsa palamente
018_0192 clarksburry
018_0196 ho romela kapa ho tsamaisa
018_0198 florence
018_0201 tse phahameng ka ho fetisisa
018_0202 jo'burg
018_0203 history
018_0208 blood
018_0210 lexical
018_0211 registrar of animal improvement e
018_0213 lwetse
018_0215 behwa ke manejara wa lebatowa
018_0216 bushbuckridge
018_0217 ke ho e etsa ka
018_0218 good
018_0219 ngodisa ho registrar of animal
018_0228 ho ba le seabo mosebetsing
018_0231 mitford
018_0238 dinepe tse pedi tsa id
018_0240 randburg
018_0243 eba o fela o lomahantse
018_0244 mcclennan's
018_0250 badisa
018_0251 ka moya wa ho etsa
018_0252 nngwe ya ditsela tsa ho
018_0256 se holang sa kgolabolokwe e
018_0261 gregory
018_0262 ho tswa porofensing ka nngwe
018_0263 dinepe tse pedi tsa moraorao
018_0264 sandler's
018_0268 tshebetso tsa lekgetho la kuno
018_0269 transvaal
018_0272 le ditjeho tsa diesel e
018_0277 inthanethe mme o e tlatse
018_0281 ho boetswe ha fumanwa hore
018_0288 kgonne jwang ho ntshetsa pele
018_0292 eo ho buuwang ka yona
018_0294 dutton
018_0298 phupu
018_0300 thibelo ya mefuta ya peo
018_0305 ba leruo bo le ka
018_0308 ke ba buang senyesemane le
018_0309 ntja
018_0314 barberton
018_0318 clive
018_0322 le dikhoutu tse nepahetseng tsa
018_0325 jwalo ka ha ho bonahala
018_0334 ba sa sebedise tlwaelo ena
019_0001 ho tswela pele ho ya
019_0015 president harry
019_0025 ya tlhaselo e eso fihle
019_0026 republican party united
019_0027 atlantic
019_0029 la nakwana le lokelwang ho
019_0032 pele ho ka jalwa sejothollo
019_0035 pimville
019_0036 state university alumni
019_0037 ho feta ka moo ho
019_0038 tiisitse hore ha ho hlwahlwa
019_0046 seetebosigo
019_0048 management
019_0050 melbourne football club
019_0052 francisco bay area
019_0054 malwetse a pustule a bakwang
019_0056 tlameha ho felehetsa kopo ka
019_0057 monetary fund imf
019_0058 romela ka mora nako ditlaleho
019_0063 di fetwa ka bohlwahlwa ke
019_0064 mmala o motsho le bosweu
019_0065 bethal
019_0069 re tla tswela pele ka
019_0071 british foreign secretary
019_0074 hard disk drive
019_0077 austrian school economists
019_0078 army occupied cypriot
019_0079 memphis
019_0081 basebeletsi ba lefapha la ditaba
019_0084 west
019_0091 sa moralo wa puo ho
019_0094 diporofensi di a nahanwa boemong
019_0095 tse ikgethileng tsa kgatello di
019_0096 reef
019_0097 ho tla nne ho dule
019_0103 science fiction hall
019_0106 balemi ba ntseng ba thuthuha
019_0108 leo mobu o leng ho
019_0112 e felletseng ya kgatiso tsa
019_0115 tse lokelang ho ba ka
019_0120 meade
019_0125 british west indies
019_0126 ntlafatsa polokeho le tshireletso ya
019_0127 pope benedict
019_0129 functional programming languages
019_0132 ancient near east
019_0137 fact date january
019_0139 western united states
019_0143 knights grand cross
019_0144 lejwe
019_0147 united nations high
019_0154 national baseball hall
019_0155 billion years ago
019_0159 islamic conference oic
019_0163 ka hara lekgotla la naha
019_0167 rapid economic growth
019_0169 tsa diporofensi di a nahanwa
019_0172 northern mariana islands
019_0175 game boy advance
019_0176 poone ya selelekela mabapi le
019_0177 american television actors
019_0180 african unity oau
019_0182 petroleum exporting countries
019_0183 ba thupelo ba lokela ho
019_0185 random access memory
019_0188 american voice actors
019_0192 transvala
019_0197 ludwig von mises
019_0198 roman catholic archbishops
019_0199 south sandwich islands
019_0200 osama bin laden
019_0203 cognitive behavioral therapy
019_0204 dubious date april
019_0205 black sea coast
019_0206 kopo e tlameha ho felehetswa
019_0208 nna a fetoha sebaka moo
019_0209 e tiiseditsweng ha ditokomane di
019_0210 average life expectancy
019_0214 south
019_0215 kopo e ka se elwe
019_0216 ke notary public kapa mokhomishenara
019_0219 california state university
019_0221 persian gulf states
019_0223 lengolo la tumello haeba o
019_0229 american musical theatre
019_0230 moo e leng hore ho
019_0232 eldorado
019_0234 positive real numbers
019_0235 leondale
019_0240 clarify date february
019_0244 tsa tlhahlobo tse molaong mme
019_0247 kansas city royals
019_0248 ha o a dumellwa ho
019_0249 ho bohlokwa ka ho fetisisa
019_0251 mokga oo a etsang kopo
019_0252 liberal arts college
019_0255 ke wa qobella molemi ho
019_0256 ditlhaloso tsa lengolo la truste
019_0257 boston red sox
019_0258 tsa theko ya sehlahiswa le
019_0260 united states district
019_0261 park
019_0265 security assistance force
019_0266 northern
019_0271 ford motor company
019_0276 union member states
019_0278 dikokwanyana ka thibelo ya mefuta
019_0279 samuel's
019_0283 united states declaration
019_0284 early morning hours
019_0285 le moemedi wa afrika borwa
019_0288 tone ka nngwe ho tsamaisa
019_0289 fane ka nomoro ya akhauntu
019_0290 episcopal church usa
019_0291 music awards winners
019_0296 hloka tumello e ikgethang e
019_0299 video game developers
019_0300 petroleum exporting countries
019_0301 general public license
019_0305 hubble space telescope
019_0306 hauhelele
019_0307 tshebetso tsa lekgetho la kuno
019_0308 ho etsa diteko tsa hiv
019_0313 ba badudi ba saruri ba
019_0315 ho tswa ho moabi ya
019_0317 islamic conference oic
019_0321 tsebiso ya lefapha le molaong
019_0323 clarify date march
019_0324 national public radio
019_0327 gcis e ka fana ka
019_0328 old garden roses
019_0331 royal dutch shell
019_0334 states district court
019_0341 states unemployment rate
019_0342 dikgatiso tsa tshebediso ya dipuo
019_0346 united states air
019_0349 dennilton
019_0358 grisly
019_0362 ya hao ya boitsebiso kapa
019_0364 imperial japanese navy
019_0370 kapa o tshwerwe tlasa mental
019_0371 mariha e hloka nako e
019_0372 le ngodisitsweng mona afrika borwa
019_0374 sound
019_0375 kgothalletswa ho ithuta dipuo tse
019_0376 king james version
019_0377 marcel
019_0381 phemiti ya ditswantle ya bongaka
019_0382 mananeo a mmuso a ho
019_0384 etsa kopo bakeng sa phemiti
019_0389 major professional sports
019_0391 re tla sebetsa ka matla
019_0394 haufi tsa ntshetsopele ya setjhaba
019_0395 notable examples include
019_0396 ho fana ka beile le
019_0398 dilemong tse mmalwa tse fetileng
019_0399 united states government
019_0400 box office success
019_0401 ho ya ka palo ya
019_0404 ho bonahala eka ha ho
019_0405 le haebe ho boletswe ka
019_0407 close air support
019_0413 le kgahleho bophelong ba motletlebi
019_0416 di ka qojwang ka teng
019_0418 united states dollar
019_0419 ka hara naha ya afrika
019_0420 ya bt papisong le mekgwa
019_0421 pakeng tsa batho ba babedi
019_0422 old east norse
019_0423 billy
019_0426 ka kamano ya ho se
019_0429 professional american football
019_0432 leng hore ha ho hlokehe
019_0436 ice hockey team
019_0445 fact date july
019_0447 nebula award winning
019_0449 valence bond theory
019_0451 pro football hall
019_0452 ya south african revenue service
019_0454 atlantic treaty organization
019_0455 american free trade
019_0459 comic book series
019_0461 animated television series
019_0462 of access to information act
019_0463 sexually transmitted diseases
019_0464 catherine
019_0465 asian financial crisis
019_0468 ke boikarabelo ba moahi e
019_0471 saense ya lekgotleng la molao
019_0473 boyce
019_0474 ka potlako ka ho ya
019_0479 extension
019_0480 hang ha ho se ho
019_0481 new testament canon
019_0486 ho sebedisa thaere e kgolwanyane
019_0495 aung san suu
019_0497 ke molao wa motheo ho
019_0498 make extensive use
019_0500 open source initiative
019_0501 ya jwalo ha se mang
019_0505 human rights record
019_0506 jewish american writers
019_0507 le ba nang le seabo
019_0508 ho ithuta dipuo tse ding
019_0509 edwin
019_0513 international criminal court
019_0516 hang ka selemo ka mora
019_0517 e leng commission for conciliation
019_0518 arizona state university
019_0519 dutton
019_0523 david
019_0524 e ka nka dikgwedi tse
019_0526 palamente ya rephaboliki ya afrika
019_0527 tswang dipuong tsa sehlopha sa
019_0532 kuno e phahameng ya dijothollo
019_0534 keketseho ya boleng ba masimo
019_0535 ya tswelang pele ka mosebetsi
019_0536 treaty organization nato
019_0537 winter olympic games
019_0538 ludwig von mises
019_0539 ya bt di tshwanetse ho
019_0542 american musical theatre
020_0001 leqephe la pele la foromo
020_0009 articles including recorded
020_0013 pholisi ya naha ya batjha
020_0015 moahong wa lekgotla la naha
020_0016 la ditaba tsa tikoloho le
020_0018 boleng ba bophelo ba batho
020_0020 central
020_0021 proffesor
020_0024 free methodist church
020_0030 kgahlanong le dikgoka ho basadi
020_0032 supreme court ruled
020_0033 good
020_0036 best supporting actor
020_0037 cathode ray tube
020_0041 president george
020_0042 leng se bolelang hore ho
020_0044 law enforcement agencies
020_0047 states environmental protection
020_0051 united states geological
020_0052 madison square garden
020_0059 screen actors guild
020_0063 mesebetsi e itseng ka ho
020_0064 l cuin abbr
020_0065 early church fathers
020_0070 senqu
020_0071 randfontein
020_0077 french west africa
020_0080 grammatical
020_0084 kontane kapa ka tjheke e
020_0086 electron transport chain
020_0091 re kopa hore o ele
020_0093 holy hand grenade
020_0094 valhalla
020_0095 best foreign language
020_0099 di na le nako e
020_0101 following world war
020_0103 high seas fleet
020_0115 ha eba o hloleha ho
020_0124 laesense ya boditjhaba ya ho
020_0125 le o mong o na
020_0128 harry
020_0131 tailor
020_0132 miller's
020_0133 armoured fighting vehicles
020_0140 army air corps
020_0143 ke ke wa kgona ho
020_0145 environmental protection agency
020_0146 ha metsi pakeng tsa dikarolwana
020_0147 mabapi le sehla se tlang
020_0150 buddhism
020_0151 hall
020_0152 power parity comparisons
020_0154 primitive recursive functions
020_0157 strategic air command
020_0162 new york yankees
020_0165 le hore re tle re
020_0168 fact date august
020_0172 maseru
020_0176 international atomic energy
020_0177 october
020_0181 nfc championship game
020_0185 van der waals
020_0186 congressional gold medal
020_0187 e nang le share capital
020_0190 red blood cells
020_0192 wa etsa tshebetso tsa kgwebisano
020_0193 recreation
020_0198 ka morero wa ho matlafatsa
020_0199 gibbon
020_0203 saint john river
020_0204 bridgeport
020_0207 e tswang ho registrar of
020_0208 history
020_0211 ya saense ya lekgotleng la
020_0213 ozone layer protection
020_0217 bill
020_0218 big bang model
020_0223 borwa e se nang morabe
020_0224 centrally planned economy
020_0238 common law jurisdictions
020_0242 bad
020_0251 midrand
020_0254 award winning authors
020_0261 bragg
020_0269 southwestern united states
020_0270 league baseball team
020_0271 poids et mesures
020_0277 hartbeespoort
020_0280 efe kapa efe eo ho
020_0281 church turing thesis
020_0287 palestine liberation organization
020_0288 potter's
020_0293 american psychiatric association
020_0294 chancellorsville
020_0295 foreign direct investment
020_0296 science fiction novel
020_0297 golden globe film
020_0298 ho ntsha raporoto ya radiology
020_0307 modern orthodox judaism
020_0311 man
020_0314 eo re neng re e
020_0316 united states president
020_0320 fifa world cup
020_0322 strong nuclear force
020_0324 royal albert hall
020_0326 motor vehicle manufacturers
020_0335 junior high school
020_0341 rala mme o romele ditokomene
020_0342 nuclear test ban
020_0345 di be tharo mme o
020_0346 mahareng a phato ho fihlela
020_0347 fiction television series
020_0349 south asian association
020_0351 dikopo tse sa tlatswang ka
020_0352 metsimaholo
020_0357 national science foundation
020_0358 la provinse kapa la naha
020_0359 african
020_0364 sa witblits se neng se
020_0368 ya pele e neng e
020_0370 mokgwa wa elektroniki kapa khaontareng
020_0374 le reng limited le tla
020_0379 provenseng kang ho tla ba
020_0380 sapoto jwalo ka ha e
020_0381 randburg
020_0382 european economic area
020_0384 tjhelete ya hae e kenang
020_0390 tse ka hodimo tsa mobu
020_0391 numeric character references
020_0393 kenngwa ha jine ya bt
020_0395 tshebetso e etsang hore ho
020_0396 durban
020_0400 golden globe winners
020_0401 ba bangata ba nang le
020_0402 disebediswa tse seng di ile
020_0405 human development index
020_0411 roman catholic priests
020_0417 mme re tshepa hore moya
020_0419 internet protocol suite
020_0422 formal diplomatic relations
020_0423 north germanic languages
020_0429 september
020_0432 bafta winners people
020_0434 average family size
020_0452 court ha e le traste
020_0455 military coup
020_0457 seo a lokelang ho se
020_0458 lekgotleng la dinyewe ho tla
020_0461 american film producers
020_0462 ka mokgwa o sa tlwaelehang
020_0464 org wiki wikipedia
020_0471 supreme allied commander
020_0472 red blood cells
020_0476 empire
020_0481 hospital
020_0485 great lakes region
020_0487 ka ntle ya batlang ho
020_0489 protea
020_0490 monroe
020_0493 hore ba kgone ho ba
020_0495 afrika borwa ha kopo e
020_0500 magnetic resonance imaging
020_0505 nebula award winning
020_0506 science fiction hall
020_0515 army occupied cypriot
020_0527 clarify date february
020_0531 petroleum exporting countries
020_0538 ba thupelo ba lokela ho
020_0539 ntlafatsa polokeho le tshireletso ya
020_0543 leng hore ha ho hlokehe
020_0545 khopi e netefaditsweng ya bukana
020_0546 dilemong tse ngata tse fetileng
020_0547 animated television series
020_0559 e ngata ho feta e
020_0560 valence bond theory
020_0562 dikgatiso tsa tshebediso ya dipuo
020_0563 open source initiative
021_0004 o ne o sebediswa ke
021_0005 e bile wa bohlokwa ho
021_0006 tiisitse hore ha ho hlwahlwa
021_0008 ho bohlokwa ka ho fetisisa
021_0009 reef
021_0010 palestinian national authority
021_0012 ho bonahala eka ha ho
021_0013 samuel's
021_0016 e na le dimojule tse
021_0017 tsa fuwa maemo a tlase
021_0019 dilemong tse mmalwa tse fetileng
021_0020 le ho haha setjhaba sa
021_0021 fact date january
021_0024 catherine
021_0029 diporofensi di a nahanwa boemong
021_0032 boston red sox
021_0037 etsa kopo bakeng sa phemiti
021_0040 ferry
021_0041 average life expectancy
021_0042 fact date july
021_0044 leng hore ha ho hlokehe
021_0046 motheo
021_0047 latelang di tla kotjwa bakeng
021_0050 di ka romelwa ofising efe
021_0051 states unemployment rate
021_0052 imperial japanese navy
021_0053 le nngwe feela afrika borwa
021_0054 liberal arts college
021_0056 tsa lehae provinseng eo o
021_0058 le ngodisitsweng mona afrika borwa
021_0060 meade
021_0062 transvala
021_0063 american voice actors
021_0065 ditlhaloso tsa lengolo la truste
021_0066 clarify date march
021_0071 ba thupelo ba lokela ho
021_0072 hard disk drive
021_0073 ba hore khopi ya foromo
021_0074 of access to information act
021_0075 episcopal church usa
021_0079 kapa badudi ba saruri ba
021_0081 nobel prize winners
021_0083 positive real numbers
021_0087 south sandwich islands
021_0088 republican party united
021_0089 dubious date april
021_0090 united states began
021_0091 tsa diporofensi di a nahanwa
021_0092 merafong le temong bakeng sa
021_0094 ka mora nako e itseng
021_0095 ya tlhahisoleseding tshebetsong ya toka
021_0096 pro football hall
021_0097 le hore ho tle ho
021_0101 ya nka bolelele ba dibeke
021_0105 northern mariana islands
021_0107 borwa di tlameha ho ngodiswa
021_0108 state university alumni
021_0110 grisly
021_0114 sa moralo wa puo ho
021_0118 ya makgulo bakeng sa kgwebo
021_0120 morao ka dilemo tse ngata
021_0121 notable examples include
021_0124 ancient near east
021_0129 austrian school economists
021_0135 fane ka nomoro ya akhauntu
021_0142 mananeo a mmuso a ho
021_0148 tlosa pompo pele ba ilo
021_0149 united states dollar
021_0150 tsa tlhahlobo tse molaong mme
021_0151 war political
021_0152 wa provinse ya bophelo bo
021_0155 memphis
021_0158 united states air
021_0160 kgothalletswa ho ithuta dipuo tse
021_0162 american political writers
021_0163 kopo ya bodulo ba saruri
021_0165 cognitive behavioral therapy
021_0166 high middle ages
021_0171 boholo ba nako e etsang
021_0174 test ban treaty
021_0177 leondale
021_0178 western european countries
021_0180 pimville
021_0182 dikgopo tsa mahlaku hloohong ya
021_0183 billy
021_0185 ka kamano ya ho se
021_0186 phetoho efe kapa efe e
021_0187 video game developers
021_0194 american musical theatre
021_0200 international astronomical union
021_0201 hang ha ho se ho
021_0202 european union member
021_0204 motherwell
021_0206 united states declaration
021_0212 mane ho isa ho a
021_0215 george
021_0218 eldorado
021_0223 ka hara lekgotla la naha
021_0225 old garden roses
021_0226 pope benedict
021_0234 ba puo e tla hloka
021_0235 valence bond theory
021_0236 american science fiction
021_0240 tshenyo e kgolo dimeleng tse
021_0242 hubble space telescope
021_0243 tshwanela ho etsa kopo ya
021_0245 president harry
021_0246 dilemong tse ngata tse fetileng
021_0248 frank lloyd wright
021_0250 balemi ba ntseng ba thuthuha
021_0251 american sign language
021_0252 comic book series
021_0253 hloleha ho etsa jwalo ho
021_0261 a kopane le nako eo
021_0264 religious
021_0269 united nations high
021_0272 kenya tshebetsong mokgwa wa ho
021_0275 animated television series
021_0279 islamic conference oic
021_0280 islamic conference oic
021_0281 aung san suu
021_0287 petroleum exporting countries
021_0289 ho tswa ho moabi ya
021_0291 music awards winners
021_0292 francisco bay area
021_0293 le moemedi wa afrika borwa
021_0296 northern
021_0298 ke mohlodi wa bohlokwa wa
021_0301 sexually transmitted diseases
021_0305 ya grain sa ya tlhahiso
021_0311 sa silafatsa phepelo ya metsi
021_0312 ho ba motswadi wa letholwa
021_0313 ludwig von mises
021_0314 theko ya oli e tala
021_0316 ho tla nne ho dule
021_0322 ba badudi ba saruri ba
021_0323 pakeng tsa batho ba babedi
021_0327 asian financial crisis
021_0328 states district court
021_0332 le mekgwa e meng ya
021_0337 leo mobu o leng ho
021_0338 dennilton
021_0339 german air force
021_0342 kopo e tlameha ho felehetswa
021_0346 roodepoort
021_0347 jwalo ka ha ho bontshitswe
021_0349 army occupied cypriot
021_0354 petroleum exporting countries
021_0357 ofisi ya iss ya afrika
021_0360 garrick
021_0361 nna tsa kgannela tshenyong e
021_0366 early morning hours
021_0368 e ya weposaeteng ya lefapha
021_0370 melbourne football club
021_0371 british foreign secretary
021_0372 ka mokgwa o hlwahlwa ho
021_0380 nebula award winning
021_0384 kiana
021_0385 king james version
021_0387 le kgahleho bophelong ba motletlebi
021_0388 ho teng ba bang ba
021_0391 o nka kilograma e le
021_0393 matsatsi a seng ka tlase
021_0394 tshwaneleha le moruo wa tshebetso
021_0395 new york jets
021_0397 dikgeong tsa mesebetsi ya sehlopha
021_0398 sebokeng sa naha bakeng sa
021_0399 united states government
021_0402 ford motor company
021_0408 kansas city royals
021_0412 make extensive use
021_0414 nna a fetoha sebaka moo
021_0419 bethal
021_0420 itseng ntle le ho ama
021_0421 hong kong island
021_0426 grand
021_0428 malwetse a pustule a bakwang
021_0429 ke molao wa motheo ho
021_0430 tlhekelo
021_0433 e tiiseditsweng ha ditokomane di
021_0435 open source initiative
021_0439 ho thehwa ha diyuniti tsa
021_0441 baemedi ba porofensi ho ncop
021_0442 tjhelete eo e seng ya
021_0446 la ho qala la nakwana
021_0447 marcel
021_0449 a sa siya wili e
021_0450 khopi e netefaditsweng ya bukana
021_0458 persian gulf states
021_0460 kapa ho hloka bokgoni ba
021_0461 ikemetseng
021_0462 ya foromo ena e fuwe
021_0465 inshorense ya tse sebediswang mobung
021_0466 tlhahisoleseding e fumanwe bukaneng ya
021_0467 california state university
021_0468 ka tsela efe kapa efe
021_0470 knights grand cross
021_0471 thibelang lefu ka mora ketsahalo
021_0472 ho fana ka beile le
021_0475 europe music
021_0476 mabapi le maemo a setjhaba
021_0477 functional programming languages
021_0479 ena ke e nngwe ya
021_0481 boyce
021_0482 tse ntjha tsa ho banka
021_0485 nka matsatsi a fihlang ho
021_0486 rephaboliki
021_0488 ho feta ka moo ho
021_0491 ho sebedisa thaere e kgolwanyane
021_0492 rapid economic growth
021_0495 professional american football
021_0496 ya south african revenue service
021_0498 lejwe
021_0499 game boy advance
021_0500 seetebosigo
021_0501 kuno e phahameng ya dijothollo
021_0502 ba dilemo tse ka hodimo
021_0503 clarify date november
021_0504 essential fatty acids
021_0505 hore ditho tsa palamente di
021_0506 american short story
021_0507 human rights record
021_0510 winter olympic games
021_0511 mong le e mong ya
021_0512 chinese civil war
021_0513 day saint movement
021_0515 ludwig von mises
021_0516 guru granth sahib
021_0523 section e ka fana ka
021_0526 mafelong a kgwedi e nngwe
021_0530 ya seteraeke kapa ho notlellwa
021_0531 e batlang e le ntle
021_0534 arizona state university
021_0535 real gdp growth
021_0538 kapa ofe ya batlang ho
021_0547 john von neumann
021_0548 n g rjuna
021_0549 institjhute
021_0551 atlantic slave trade
021_0552 ya hao setatementeng sa banka
021_0553 form hydrogen bonds
022_0010 boyce
022_0015 setsheng sa bafu sa poraefete
022_0016 ba hore khopi ya foromo
022_0021 tiisitse hore ha ho hlwahlwa
022_0024 ho tshela oli e ntjha
022_0027 a hlahisa dikgwebo tsa tsona
022_0028 mokga oo a etsang kopo
022_0029 ya ho ba teng ho
022_0031 saense ya lekgotleng la molao
022_0034 palestinian national authority
022_0036 northern mariana islands
022_0037 ice hockey team
022_0038 ho bohlokwa ka ho fetisisa
022_0039 leng hore ha ho hlokehe
022_0043 aterese le nomoro ya mohala
022_0044 ho tswa ho moabi ya
022_0048 garrick
022_0049 mananeo a mmuso a ho
022_0051 atlantic treaty organization
022_0052 ikemetseng
022_0055 american political writers
022_0060 fact date july
022_0061 nobel prize winners
022_0063 united states district
022_0065 war political
022_0072 sena se tla ba le
022_0073 le nngwe feela afrika borwa
022_0074 union member states
022_0078 tse ka hodimo ho tse
022_0080 billy
022_0081 security assistance force
022_0085 american musical theatre
022_0086 motherwell
022_0087 of access to information act
022_0094 persian gulf states
022_0095 old garden roses
022_0097 catherine
022_0099 notable examples include
022_0101 close air support
022_0106 kopo ya phemiti ya phapanyetsano
022_0107 ena ka sepheo sa ho
022_0109 open source initiative
022_0110 ka potlako ka ho ya
022_0117 dubious date april
022_0119 president harry
022_0120 kgannelang tlhaselong e eketsehang ya
022_0123 frank lloyd wright
022_0124 western european countries
022_0131 bethal
022_0132 united states began
022_0135 united states navy
022_0136 dennilton
022_0139 di ka romelwa ofising efe
022_0140 nka matsatsi a fihlang ho
022_0142 ho ngodisa jwalo ka setsebi
022_0146 sexually transmitted diseases
022_0148 early morning hours
022_0149 francisco bay area
022_0151 la ho qala la nakwana
022_0153 rapid economic growth
022_0159 grisly
022_0165 ho teng ba bang ba
022_0166 states unemployment rate
022_0167 northern
022_0171 ho isa ho tse nne
022_0172 europe music
022_0176 liberal arts college
022_0177 seetebosigo
022_0179 ford motor company
022_0180 o tshwanetse ho tseba hore
022_0182 dikgeong tsa mesebetsi ya sehlopha
022_0184 borwa di tlameha ho ngodiswa
022_0185 ho thehwa ha diyuniti tsa
022_0186 park
022_0187 ho ngodisa setsi sa tlhahlobo
022_0188 ancient near east
022_0190 sebediswang wa ho phethola mobu
022_0191 british west indies
022_0193 ho bonahala eka ha ho
022_0195 mora ho ba kopo ya
022_0196 kopo e ka se elwe
022_0197 ka modulasetulo wa sehlopha sa
022_0198 state university alumni
022_0199 e ngata ho feta e
022_0200 american nobel laureates
022_0201 ho ntlafatsa boleng ba bophelo
022_0202 animated television series
022_0203 a sa siya wili e
022_0205 ka puo ya kgetho ya
022_0206 general public license
022_0208 cognitive behavioral therapy
022_0210 hong kong island
022_0211 kopanelo ya boitshwaro bo botle
022_0212 hard disk drive
022_0213 phemiti ya ditswantle ya bongaka
022_0214 boston red sox
022_0216 haufi tsa ntshetsopele ya setjhaba
022_0219 ka hara naha ya afrika
022_0220 billion years ago
022_0222 marcel
022_0224 ho tswela pele ho ya
022_0231 music awards winners
022_0232 sa ntsaneng a le manyane
022_0235 army occupied cypriot
022_0237 mariha e hloka nako e
022_0240 ya south african revenue service
022_0243 transvala
022_0244 south
022_0245 thibelang lefu ka mora ketsahalo
022_0247 petroleum exporting countries
022_0250 video game developers
022_0251 mabapi le maemo a setjhaba
022_0252 sa dikopo moo bukana ya
022_0253 ya boitsebiso kapa setifikeiti sa
022_0254 hloleha ho etsa jwalo ho
022_0256 re tla sebetsa ka matla
022_0257 positive real numbers
022_0258 osama bin laden
022_0259 afrika borwa jwalo ka ha
022_0260 mahola ke sera sa pele
022_0262 eldorado
022_0269 di ka nna tsa fetoha
022_0270 petroleum exporting countries
022_0271 major professional sports
022_0273 balemi ba ntseng ba thuthuha
022_0278 ke wa qobella molemi ho
022_0279 black sea coast
022_0280 ya hao ka tsela ya
022_0281 inshorense ya tse sebediswang mobung
022_0282 bo botjha le ho sebedisa
022_0283 ya hao e tla lekolwa
022_0284 kansas city royals
022_0288 south sandwich islands
022_0290 clarify date march
022_0291 hloka bokgoni ba ho phetha
022_0294 old east norse
022_0295 clarify date february
022_0298 leondale
022_0302 nna a fetoha sebaka moo
022_0303 knights grand cross
022_0304 pimville
022_0306 ba thupelo ba lokela ho
022_0307 ke boikarabelo ba moahi e
022_0311 tsa fuwa maemo a tlase
022_0318 letowana
022_0320 la nakwana le lokelwang ho
022_0322 national baseball hall
022_0323 ludwig von mises
022_0326 sound
022_0330 mabapi le tshireletso ya dijo
022_0331 reef
022_0332 states district court
022_0333 republican party united
022_0335 african unity oau
022_0339 ba badudi ba saruri ba
022_0340 ba puo e tla hloka
022_0342 wa setjhaba lawrence mushwana o
022_0344 ya naha le ya matjhaba
022_0348 polasi le nang le boleng
022_0349 ba ratang naha ya habo
022_0351 tswa dinaheng tsa ka ntle
022_0352 dilemong tse ngata tse fetileng
022_0354 fact date january
022_0355 make extensive use
022_0356 ho fana ka beile le
022_0358 ho kenyelletswa le ditaba tse
022_0359 eo ho dumellanweng ka yona
022_0360 grand
022_0361 high middle ages
022_0364 dikokwanyana ka thibelo ya mefuta
022_0366 e tshwanetse ho phethwa ka
022_0369 united states declaration
022_0370 merafong le temong bakeng sa
022_0371 le tumello e ngotsweng fatshe
022_0373 ke mang ya ka etsang
022_0375 ho tla nne ho dule
022_0376 samuel's
022_0381 ho etsa kopo ya tumello
022_0382 nna tsa kgannela tshenyong e
022_0385 george
022_0388 di ka qojwang ka teng
022_0393 nebula award winning
022_0397 dikgatiso tsa tshebediso ya dipuo
022_0398 new testament canon
022_0400 pope benedict
022_0401 hlalositsweng bakeng sa ditjhelete tse
022_0402 tse tshwanetseng ho elwa hloko
022_0404 khopi ya rasiti e saennweng
022_0405 ke molao wa motheo ho
022_0409 ka rakonteraka o na le
022_0413 game boy advance
022_0415 efe kapa efe ya yona
022_0418 pakeng tsa batho ba babedi
022_0423 tlhahisoleseding e fumanwe bukaneng ya
022_0424 american free trade
022_0426 islamic conference oic
022_0427 king james version
022_0432 tone ka nngwe ho tsamaisa
022_0442 o nka kilograma e le
022_0446 theko ya sehlahiswa le bongata
022_0449 kenya tshebetsong mokgwa wa ho
022_0450 ho ya ka palohare ya
022_0452 hubble space telescope
022_0453 british foreign secretary
022_0462 lengolo la tumello haeba o
022_0463 ya tse romellwang ka ntle
022_0464 larry
022_0465 united states government
022_0466 kiana
022_0467 kopo ya ho ngodisa khampani
022_0470 episcopal church usa
022_0471 tse lokelang ho ba ka
022_0473 rephaboliki
022_0475 monyakeng
022_0476 asian financial crisis
022_0477 roman catholic archbishops
022_0478 itseng ntle le ho ama
022_0480 fane ka nomoro ya akhauntu
022_0487 le kgahleho bophelong ba motletlebi
022_0488 german air force
022_0490 kopo e tlameha ho felehetswa
022_0491 fihlwang ho yona ya mohlahisi
022_0494 pro football hall
022_0495 a dintwa tsa ka malapeng
022_0496 tla neha ba leloko sebaka
022_0499 austrian school economists
022_0501 nka nako e telele ho
022_0502 los angeles county
022_0504 tswang dipuong tsa sehlopha sa
022_0505 essential fatty acids
022_0508 mabapi le puo tsa lefapha
022_0513 palamente ya rephaboliki ya afrika
022_0514 bonaparte
022_0515 ya b di be tharo
022_0516 jwalo ka o motjha mme
022_0517 etsa diketso tse hlabisang dihlong
022_0518 treaty organization nato
022_0521 dikgatiso tsa menwana ya mokopi
022_0522 chinese communist party
022_0524 received mixed reviews
022_0526 ya afrika borwa ba dilemo
022_0528 ke e nngwe ya dintlha
022_0529 e leng commission for conciliation
022_0532 eo ba nang le yona
022_0533 ludwig von mises
022_0536 le ona o hlokometse hore
022_0537 institjhute
022_0538 afidaviti eo ho entsweng kano
022_0539 ebe o nka kilograma e
022_0540 lekgotla la afrika borwa la
022_0541 ya tswelang pele ka mosebetsi
022_0544 native american tribes
022_0545 clarify date november
022_0546 real gdp growth
022_0550 ho etsa qeto mabapi le
022_0551 central processing unit
022_0554 human rights record
022_0555 guru granth sahib
022_0556 ho balwa ka botebo le
022_0557 a se ke a kena
022_0559 ho ya ka dipehelo tsa
022_0561 john von neumann
022_0563 o loketseng tlhahiso ya dijothollo
022_0564 winter olympic games
022_0565 tlameha ho tlatswa ke mokopi
022_0575 form hydrogen bonds
022_0577 dutton
022_0578 arizona state university
022_0579 kuno e phahameng ya dijothollo
022_0580 ya nang le phemiti ya
022_0581 ho na le ditsela tse
022_0582 social democratic party
022_0584 na le tshepo ya hore
022_0585 etsa hore a kgone ho
022_0590 moo o ile wa sebediswa
022_0591 kansas state university
022_0592 sehla se hlahlamang sa ho
022_0593 le ba nang le seabo
022_0596 missing living people
022_0597 seteisheneng sa mapolesa se haufi
022_0598 nna ha etsahala hore o
022_0599 ya seteraeke kapa ho notlellwa
022_0600 e nngwe ho ya ho
022_0601 ba mmalwa le traste ditho
022_0602 ditshebeletso tsa sepolesa sa afrika
022_0605 bahwebi ba sa sebedise tlwaelo
022_0606 kapa ofe ya batlang ho
022_0607 guano islands act
022_0608 united states federal
022_0609 chinese civil war
022_0612 a mmalwa ho ya dibekeng
022_0614 mafelong a kgwedi e nngwe
022_0616 day saint movement
022_0617 tla tswela pele ho sebetsa
022_0618 terekere le disebediswa tsa temo
022_0619 united arab emirates
022_0620 international financial institutions
022_0622 american short story
022_0623 david
022_0626 international criminal court
022_0628 ho phetholwa ha pele ha
022_0630 late twentieth centuryodowska curie
022_0631 folaga e ntle ka ho
022_0632 internal combustion engine
022_0636 mtv video music
022_0637 ya bt di tshwanetse ho
022_0638 ya ka maemo a amohelehileng
022_0640 diphaphosing tsa borutelo ka nako
022_0641 edwin
022_0642 pope urban
022_0643 ha ba hloke ho ntsha
022_0647 qhamakwane
022_0648 ho ithuta dipuo tse ding
022_0650 quantum field theory
022_0651 mekgwa le melao ya ho
022_0652 wa afrika borwa ntle le
022_0653 pele ho ngodiso ho ya
022_0654 power parity comparisons
022_0656 education
022_0657 major political parties
022_0658 president woodrow wilson
022_0659 merero e ntlafaditsweng ya tlhahiso
022_0660 ho latela dipehelo tsa molao
022_0663 tse nyenyane le tse mahareng
022_0665 san pedro sula
022_0667 social democratic parties
022_0668 kopo ya hao ka tsela
022_0669 batho ba afrika borwa bao
022_0670 states presidential candidates
022_0671 pakeng tsa afrika borwa le
022_0672 itshebetsang puong jwalo ka bafetoledi
023_0001 church turing thesis
023_0003 mabitso a bonkgetheng bakeng sa
023_0005 monroe
023_0006 united states senate
023_0009 science fiction novel
023_0010 golden globe winners
023_0014 chancellorsville
023_0017 sa witblits se neng se
023_0025 laesense ya boditjhaba ya ho
023_0032 terekere le disebediswa tsa polasing
023_0033 ka mokgwa o hlakileng ho
023_0041 common law jurisdictions
023_0049 durban
023_0057 sehlopheng sa rona sa tshebetso
023_0058 moo ho ipehilweng ka tsela
023_0059 hartbeespoort
023_0060 sa leano la ditekanyetso tsa
023_0062 electron transport chain
023_0064 kopo ya setefikeiti sa ho
023_0066 sebedisa tlhahisoleseding e kentsweng ke
023_0067 screen actors guild
023_0068 ke ke wa kgona ho
023_0071 internet protocol suite
023_0075 court ha e le traste
023_0076 van der waals
023_0077 o motsho le o mosweu
023_0078 moaho wa lekgotla la naha
023_0080 tailor
023_0082 ho se ho kenwe ho
023_0084 kgahlanong le dikgoka ho basadi
023_0085 madison square garden
023_0088 seng le lefilwe bakeng sa
023_0089 magnetic resonance imaging
023_0095 banna le basadi ba na
023_0103 wa lekgotla la naha la
023_0105 french west africa
023_0107 mabapi le sehla se tlang
023_0110 power parity comparisons
023_0113 american film producers
023_0115 national science foundation
023_0117 e tla fapana ka ho
023_0120 feta pele hore ho na
023_0124 ya tshwereng thaetlele kapa monga
023_0125 efe kapa efe eo ho
023_0129 midrand
023_0131 numeric character references
023_0135 european economic area
023_0136 tadimilwe thibelo ya tlhodisano le
023_0138 ha e kenyeletse hlapi ya
023_0143 recent common ancestor
023_0147 tlamehile maoto le matsoho ho
023_0148 bakeng sa morwalo o mong
023_0149 best supporting actor
023_0150 tlhahiso ya dijothollo mobung o
023_0151 international atomic energy
023_0154 akhaonteng e latelang ya banka
023_0155 man
023_0156 bao e leng ditho tsa
023_0157 miller's
023_0158 le ho tempuwa ke mosebeletsi
023_0159 kenngwa ha jine ya bt
023_0160 neelane ka kopo ya hao
023_0161 hall
023_0164 hore ditokomane tsa mmuso ha
023_0166 mmalwa le traste ditho tsohle
023_0167 tse ka hodimo tsa mobu
023_0169 e leng se etsang hore
023_0173 ho fanwa ka sona ka
023_0174 nfc championship game
023_0175 bona ba na le tokelo
023_0176 o neng o rena ditherisanong
023_0177 mokgwa wa elektroniki kapa khaontareng
023_0178 human development index
023_0179 haholo ke moruo wa tsona
023_0180 randfontein
023_0181 federal trade commission
023_0182 haufi le wena kapa ba
023_0187 hospital
023_0190 phepelo ya dijo tsa polasing
023_0192 la provinse kapa la naha
023_0193 mang ya ikemiseditseng ho nehelana
023_0194 fact date august
023_0196 e na le boikarabelo ba
023_0198 phethahatso ya leano lena e
023_0199 supreme court ruled
023_0203 free methodist church
023_0204 palestine liberation organization
023_0206 ozone layer protection
023_0212 articles including recorded
023_0213 ha eba o hloleha ho
023_0216 states environmental protection
023_0217 american psychiatric association
023_0218 etsa boipiletso ho letona la
023_0220 bafta winners people
023_0225 mabapi le tlhahiso ya koro
023_0228 madison square garden
023_0229 award winning authors
023_0231 buddhism
023_0232 eighty years war
023_0233 ho etsa kopo ya taelo
023_0234 army air corps
023_0237 ka mokgwa o sa tlwaelehang
023_0239 mesebetsi e itseng ka ho
023_0244 argentina ho ya afrika borwa
023_0245 mabapi le mefuta e metle
023_0246 convention
023_0248 sapoto jwalo ka ha e
023_0250 primitive recursive functions
023_0253 strong nuclear force
023_0260 ngotsweng ya ho ngodisa ofising
023_0261 law enforcement agencies
023_0262 ho se na motho ya
023_0264 national hockey league
023_0265 supreme allied commander
023_0267 baheno
023_0268 randburg
023_0269 kopi e tiiseditsweng ya bukana
023_0271 national football team
023_0272 tsitsitseng mmusong maemong le ha
023_0273 tsa taolo ka dikhemikhale le
023_0274 central
023_0278 motho ka mong o tlamehile
023_0283 bad
023_0284 american jewish people
023_0287 di ka etswa hape le
023_0289 ya hae ntle ho lebaka
023_0291 october
023_0292 tlasa merero e hlwauweng mona
023_0295 tla romelwa seteisheneng sa mapolesa
023_0297 fiction television series
023_0298 tlhahiso ya poone le soneblomo
023_0299 mokgatlo o emetseng basebeletsi tumellanong
023_0301 cathode ray tube
023_0304 tlhaho temeng ya saense ya
023_0305 russian civil war
023_0307 president george
023_0309 e nngwe ya tsona e
023_0310 league baseball team
023_0313 nelson mandela le thabo mbeki
023_0315 centrally planned economy
023_0316 hlahisa dijothollo di phahame haholo
023_0320 moralo wa leano la puo
023_0322 tswela pele ho sebetsa le
023_0324 wa afrika borwa ya hlokahetseng
023_0326 le o mong o na
023_0327 moo motho a fumanang kuno
023_0329 congressional gold medal
023_0331 diminerale kapa mahakwe a bohlokwa
023_0332 kopo ya phemiti ya bodulo
023_0336 motho a tshwerweng ho yona
023_0338 nakong eo masimo a tlohetsweng
023_0340 history
023_0341 tse phahameng tsa taolo ka
023_0343 tsena tsohle di ile tsa
023_0344 leng se bolelang hore ho
023_0345 motho e mong ya nang
023_0348 tsa larvae hammoho le mahe
023_0349 e kenella tlase mobung le
023_0351 tlwaelo e ke ke ya
023_0352 dikopo tse sa tlatswang ka
023_0357 blood
023_0358 ho tholwa ha ngwana ka
023_0359 nako e telele ho tiisitse
023_0362 new york yankees
023_0364 saint john river
023_0367 united states army
023_0368 original game boy
023_0372 tumello e ngotsweng fatshe e
023_0373 modern orthodox judaism
023_0375 potter's
023_0378 environmental protection agency
023_0379 empire
023_0380 north germanic languages
023_0381 tokomane eo o batlang ho
023_0382 nuclear test ban
023_0383 john
023_0384 junior high school
023_0385 south asian association
023_0387 bridgeport
023_0388 protea
023_0390 new york jets
023_0391 golden globe film
023_0392 gibbon
023_0393 dingane
023_0394 e tswang ho registrar of
023_0395 september
023_0396 o ile a fana ka
023_0397 ntate wa ngwana ya tswetsweng
023_0399 red blood cells
023_0400 bill
023_0401 ya mobu bakeng sa ntshetsopele
023_0405 system
023_0406 american male singers
023_0407 butlebutle ka mokgwa o ke
023_0410 citation needed april
023_0412 best foreign language
023_0414 television shows set
023_0415 ofisi ya lefapha le haufi
023_0416 good
023_0418 royal albert hall
023_0419 kofi
023_0421 bragg
023_0425 great lakes region
023_0434 tshebeletso ya poso e sa
023_0436 ka mokgwa o nepahetseng nakong
023_0441 disebediswa tse seng di ile
023_0446 following world war
023_0449 leng le le leng kapa
023_0453 fifa world cup
023_0457 united states census
023_0461 e nang le share capital
023_0462 ka dikopi tse tiiseleditsweng tsa
023_0463 ka ntle ya batlang ho
023_0469 senqu
023_0471 african
023_0472 proffesor
023_0474 motor vehicle manufacturers
023_0476 big bang model
023_0477 ho na le mefuta e
023_0478 foreign direct investment
023_0480 complaints
023_0485 san francisco giants
023_0486 le eneji le la dikgwebo
023_0487 diprojeke tsa bohlokwa tsa lenaneo
023_0488 moahi wa naha ya afrika
023_0489 bilateral immunity agreement
023_0490 maseru
023_0491 hoer leano le phethahale bophelong
023_0492 mahola e tshwanetse ho etswa
023_0493 dikarolo dife kapa dife tse
023_0495 ho lefa molato wa hao
023_0496 batsi mabapi le sekgahla sa
023_0498 ho ngodisa jwalo ka setsebi
023_0499 tlhekelo ka letona la bonono
023_0502 a ka nna a fafatswa
023_0503 hloka tumello e ikgethang e
023_0504 station
023_0505 ho beha leihlo tshebediso ya
023_0506 united states district
023_0507 a hlahisa dikgwebo tsa tsona
023_0508 tsa mokgatlo kapa mokgatlo wa
023_0509 ena ke e nngwe ya
023_0510 liberal arts college
023_0511 phahameng ya poone le mmaraka
023_0512 science fiction hall
023_0513 mahola ke sera sa pele
024_0001 ice hockey team
024_0002 ka kamano ya ho se
024_0003 catherine
024_0004 yona ha feela le tla
024_0005 latela dipehelo tsa molao wa
024_0007 ka mokgwa ofe kapa ofe
024_0008 republican party united
024_0009 phetoho efe kapa efe e
024_0010 le ho haha setjhaba sa
024_0011 botoloki ka mohala tsa afrika
024_0012 moahi wa afrika borwa kapa
024_0014 ya seteraeke kapa ho notlellwa
024_0015 ho bohlokwa ka ho fetisisa
024_0016 leo mobu o leng ho
024_0017 lefuweng bakeng sa tokelo ya
024_0018 nebula award winning
024_0019 bakeng la tsebo ya mosebetsi
024_0021 national baseball hall
024_0022 united states government
024_0024 aung san suu
024_0025 khopi e netefaditsweng ya bukana
024_0026 cognitive behavioral therapy
024_0027 hang ha ho se ho
024_0029 ba badudi ba saruri ba
024_0030 nka matsatsi a fihlang ho
024_0031 ha eba poone e iswa
024_0032 sefe sa tlhahlobo ya laesense
024_0034 london
024_0035 tsa diporofensi di a nahanwa
024_0038 roman catholic archbishops
024_0040 british foreign secretary
024_0041 grisly
024_0042 union member states
024_0045 ya tlhahisoleseding tshebetsong ya toka
024_0046 theko ya sehlahiswa le bongata
024_0047 melbourne football club
024_0049 hlahisa ditabatabelo le mehopolo ya
024_0051 tsa lehae provinseng eo o
024_0052 ya phemiti ya mosebetsi ya
024_0054 billy
024_0055 le katleho ya sepheo sa
024_0057 african unity oau
024_0059 northern mariana islands
024_0062 tshebediso e sa lokang ya
024_0065 baemedi ba porofensi ho ncop
024_0067 american television actors
024_0068 ho tshela oli e ntjha
024_0070 pope benedict
024_0071 mokopi le mohatsa hae ba
024_0073 austrian school economists
024_0076 sa ntsaneng a le manyane
024_0077 ya nka bolelele ba dibeke
024_0079 animated television series
024_0081 dubious date april
024_0082 sebaka moo sepudutsi se ke
024_0083 united nations high
024_0084 lejwe
024_0085 western united states
024_0086 francisco bay area
024_0087 meade
024_0088 tse ka hodimo ho tse
024_0089 tlhakiso ya mahlale a puo
024_0091 dikokwanyana ka thibelo ya mefuta
024_0093 game boy advance
024_0094 kopo ya ho ngodisa khampani
024_0095 bethal
024_0096 united states dollar
024_0098 of access to information act
024_0102 ditlhaloso tsa lengolo la truste
024_0103 moo e leng hore ho
024_0105 tlameha ho felehetsa kopo ka
024_0107 ho ngodisa khampani e poraefete
024_0108 ke molao wa motheo ho
024_0109 ikopanye le ofisi ya lefapha
024_0110 e tiiseditsweng ha ditokomane di
024_0111 sa moralo wa puo ho
024_0112 ya hao ya boitsebiso kapa
024_0114 united states began
024_0115 comic book series
024_0116 inshorense ya tse sebediswang mobung
024_0119 european union member
024_0121 functional programming languages
024_0122 ba hore khopi ya foromo
024_0124 kopanelo ya boitshwaro bo botle
024_0125 security assistance force
024_0127 atlantic treaty organization
024_0128 fact date january
024_0132 garrick
024_0134 billion years ago
024_0137 persian gulf states
024_0138 ya makgulo bakeng sa kgwebo
024_0140 tsebiso ya lefapha le molaong
024_0143 islamic conference oic
024_0146 petroleum exporting countries
024_0147 diporofensi di a nahanwa boemong
024_0148 western european countries
024_0152 american sign language
024_0153 ka hlaloswa ka mokgwa o
024_0154 mang le a mang a
024_0155 boholo ba nako e etsang
024_0157 american voice actors
024_0159 northern
024_0160 national public radio
024_0161 ya hao e tla lekolwa
024_0162 mme ho tla ya ka
024_0164 thibelang lefu ka mora ketsahalo
024_0165 kopo ya bodulo ba saruri
024_0166 o tshwanetse ho tseba hore
024_0167 tshwaneleha ka mora nako e
024_0168 united states air
024_0171 samuel's
024_0174 rapid economic growth
024_0175 close air support
024_0179 ya ho tsamaisa tshebeletso ya
024_0180 basebeletsi ba lefapha la ditaba
024_0184 ho ba le seabo lenaneong
024_0186 hong kong island
024_0188 wa provinse ya bophelo bo
024_0190 german air force
024_0192 ya naha le ya matjhaba
024_0193 ho ba motswadi wa letholwa
024_0194 notable examples include
024_0195 metsi a ka nnang a
024_0196 ke sesebediswa se sebetsang ka
024_0197 essential fatty acids
024_0198 high middle ages
024_0199 early morning hours
024_0204 box office success
024_0206 positive real numbers
024_0207 sexually transmitted diseases
024_0208 nakong ya dikgwedi tsa hlabula
024_0209 ba puo e tla hloka
024_0210 ho thehwa ha diyuniti tsa
024_0211 asian financial crisis
024_0212 puo ya bajete le setatemente
024_0213 mabapi le tshireletso ya dijo
024_0216 tswa dinaheng tsa ka ntle
024_0217 roodepoort
024_0218 music awards winners
024_0219 open source initiative
024_0220 ke wa qobella molemi ho
024_0221 ho qetela la ho sebetsa
024_0222 ho tswela pele ho ya
024_0223 dikgeong tsa mesebetsi ya sehlopha
024_0225 letowana
024_0226 fact date july
024_0227 tlhahisoleseding e fumanwe bukaneng ya
024_0228 park
024_0229 ancient near east
024_0231 dikgatiso tsa tshebediso ya dipuo
024_0232 kapa o tshwerwe tlasa mental
024_0233 tse tshwanetseng ho elwa hloko
024_0235 itseng ntle le ho ama
024_0237 e tshwanetse ho phethwa ka
024_0239 palestinian national authority
024_0240 wa batswadi kapa mohlokomedi wa
024_0242 e ya weposaeteng ya lefapha
024_0243 tshwaneleha le moruo wa tshebetso
024_0244 major professional sports
024_0245 nobel prize winners
024_0246 royal dutch shell
024_0247 ka mokgwa o hlwahlwa ho
024_0249 kgannelang tlhaselong e eketsehang ya
024_0250 grand
024_0251 ya bt papisong le mekgwa
024_0254 south sandwich islands
024_0257 south
024_0258 ba ratang naha ya habo
024_0259 boyce
024_0260 british west indies
024_0261 ho itsebisa jwalo ka ntate
024_0262 nna a fetoha sebaka moo
024_0263 le tumello e ngotsweng fatshe
024_0264 american nobel laureates
024_0265 morao ka dilemo tse ngata
024_0266 motheo
024_0267 o lokela ho etsa kopo
024_0268 setsheng sa bafu sa poraefete
024_0269 pele ho ka jalwa sejothollo
024_0270 ikemetseng
024_0273 n g rjuna
024_0275 fihlwang ho yona ya mohlahisi
024_0279 islamic conference oic
024_0280 war political
024_0281 general public license
024_0282 le nngwe feela afrika borwa
024_0283 saense ya lekgotleng la molao
024_0287 ka hara naha ya afrika
024_0290 ka puo ya kgetho ya
024_0292 clarify date february
024_0293 le ngodisitsweng mona afrika borwa
024_0294 ford motor company
024_0295 le haebe ho boletswe ka
024_0297 average life expectancy
024_0299 afrika borwa jwalo ka ha
024_0300 ba le seabo ha basadi
024_0301 king james version
024_0302 ho fumana kalafo ya bongaka
024_0303 united states declaration
024_0304 states district court
024_0305 clarify date march
024_0306 monetary fund imf
024_0308 hlalositsweng bakeng sa ditjhelete tse
024_0309 botle le ditabatabelo tsa ditho
024_0310 a dintwa tsa ka malapeng
024_0311 larry
024_0312 ho tswa ho moabi ya
024_0314 ho ngodisa setsi sa tlhahlobo
024_0315 mananeo a mmuso a ho
024_0320 tone ka nngwe ho tsamaisa
024_0321 ba thupelo ba lokela ho
024_0323 le hore re kgone ho
024_0324 le kgahleho bophelong ba motletlebi
024_0327 di ka romelwa ofising efe
024_0328 leondale
024_0330 aterese le nomoro ya mohala
024_0331 re tla tswela pele ka
024_0332 tiisitse hore ha ho hlwahlwa
024_0333 hubble space telescope
024_0334 hauhelele
024_0336 religious
024_0337 tsa palamente di tlameha ho
024_0338 black sea coast
024_0339 wa seboka sa naha le
024_0341 tse haufi tsa ntshetsopele ya
024_0342 ho etsa diteko tsa hiv
024_0343 mabapi le maemo a setjhaba
024_0344 american musical theatre
024_0346 lengolo la tumello haeba o
024_0347 united states navy
024_0348 batlang ho fumana boahi ba
024_0353 knights grand cross
024_0354 episcopal church usa
024_0355 ya ditaba tsa lehae kapa
024_0357 state university alumni
024_0358 president harry
024_0359 ho ntlafatsa boleng ba bophelo
024_0363 american musical theatre
024_0364 frank lloyd wright
024_0365 dikgopo tsa mahlaku hloohong ya
024_0366 imperial japanese navy
024_0367 international astronomical union
024_0369 e poraefete ya ho fihlella
024_0371 ludwig von mises
024_0372 hard disk drive
024_0373 phemiti ya ditswantle ya bongaka
024_0375 mmala o motsho le bosweu
024_0377 le mekgwa e meng ya
024_0379 hloleha ho etsa jwalo ho
024_0380 kopo e tlameha ho felehetswa
024_0382 clarify date november
024_0383 latelang di tla kotjwa bakeng
024_0384 mane ho isa ho a
024_0385 wa ho qala wa leloko
024_0386 leng hore ha ho hlokehe
024_0391 ke mohlodi wa bohlokwa wa
024_0394 malwetse a pustule a bakwang
024_0395 memphis
024_0396 ya south african revenue service
024_0397 lokela ho phatlalatsa ditokomane hanghang
024_0399 valence bond theory
024_0401 tumellano ya nakwana le seng
024_0402 ofe kapa ofe wa mmuso
024_0403 borwa di tlameha ho ngodiswa
024_0405 sekgahla sa ho mela ha
024_0406 monyakeng
024_0407 la ho qala la nakwana
024_0412 e netefaditsweng ya bukana ya
024_0414 temeng ya saense ya lekgotleng
024_0417 ke notary public kapa mokhomishenara
024_0418 ya tlhaselo e eso fihle
024_0419 europe music
024_0420 phasepoto ya hao ya afrika
024_0422 a sa siya wili e
024_0423 balemi ba ntseng ba thuthuha
024_0425 ka baka la sephetho se
024_0430 eldorado
024_0432 kenya tshebetsong mokgwa wa ho
024_0433 dennilton
024_0435 jwalo ka ha ho bontshitswe
024_0436 ho kganna ya borutehi bo
024_0439 moya wa ho etsa dintho
024_0440 video game developers
024_0442 kiana
024_0443 re tla sebetsa ka matla
024_0445 ka moo ho ka kgonehang
024_0446 tsamaiso ya sehlopha sa boithuto
024_0450 new testament canon
024_0451 ho fafatsa kgahlanong le mahola
024_0452 ho bonahala eka ha ho
024_0453 tshebediso e phahameng ya sesebediswa
024_0454 extension
024_0455 management
024_0456 polasi le nang le boleng
024_0458 ka puo la afrika borwa
024_0459 kgothalletswa ho ithuta dipuo tse
024_0460 winter olympic games
024_0462 khopi ya rasiti e saennweng
024_0463 sebediswang wa ho phethola mobu
024_0464 fane ka nomoro ya akhauntu
024_0466 nna tsa kgannela tshenyong e
024_0467 kopo e ka se elwe
024_0468 tsa theko ya sehlahiswa le
024_0469 ramolodi
024_0470 ka hara lekgotla la naha
024_0471 ho feta ka moo ho
024_0472 rephaboliki
024_0473 dilemong tse ngata tse fetileng
024_0474 western united states
024_0475 la nakwana le lokelwang ho
024_0481 sebokeng sa naha bakeng sa
024_0482 states unemployment rate
024_0484 merafong le temong bakeng sa
024_0485 ha o a dumellwa ho
024_0486 batshwaruwa
024_0487 army occupied cypriot
024_0493 wa setjhaba lawrence mushwana o
024_0495 tsamaiso ya mawatle le mabopo
024_0496 pimville
024_0498 petroleum exporting countries
024_0502 real gdp growth
024_0504 american short story
024_0505 kuno e phahameng ya dijothollo
024_0506 ho ya ka dipehelo tsa
024_0507 halleck
024_0508 e batlang e le ntle
024_0509 mong le e mong ya
024_0511 arizona state university
024_0512 form hydrogen bonds
024_0516 atlantic slave trade
024_0518 nakong ya matsatsi a balemi
024_0519 a se ke a kena
024_0520 chinese civil war
024_0522 hloka bokgoni ba ho nehelana
024_0523 guru granth sahib
024_0525 ya b di be tharo
024_0526 ba dilemo tse ka hodimo
024_0527 institjhute
024_0528 mafelong a kgwedi e nngwe
024_0529 lengolo le tswang ho setho
024_0531 ludwig von mises
024_0532 wayne state university
024_0535 human rights record
024_0536 john von neumann
024_0537 tekolo botjha ya ditlwaelo le
025_0003 buddhism
025_0009 harry
025_0010 early church fathers
025_0011 ha re sebetsa mmoho re
025_0014 foreign direct investment
025_0016 primitive recursive functions
025_0018 ho tloha sebopehong sa kgale
025_0020 ho suthisa ka ho ya
025_0021 average family size
025_0022 chancellorsville
025_0024 re tsebang ho sebetsa re
025_0025 man
025_0026 ho behela taelo ka thoko
025_0027 a diphoofolo tsa afrika borwa
025_0028 blood
025_0029 ho ntse ho na le
025_0030 dipeo le dipeo tse hlahang
025_0035 september
025_0036 e tla fapana ka ho
025_0038 ka mokgwa o hlakileng ho
025_0040 o neng o rena ditherisanong
025_0047 nuclear test ban
025_0048 di ka etswa hape le
025_0049 o ne a atisa ho
025_0052 original game boy
025_0056 monroe
025_0058 e nang le share capital
025_0059 etsa hore balemi ba kgone
025_0060 seboka sa naha le lekgotla
025_0061 ha fela ho sa ntse
025_0062 nfc championship game
025_0064 tse ka hodimo tsa mobu
025_0066 basebeletsi ba hao le dijothollo
025_0067 naha ya afrika borwa kapa
025_0068 wa etsa tshebetso tsa kgwebisano
025_0069 states environmental protection
025_0072 miller's
025_0075 gibbon
025_0076 bragg
025_0083 church turing thesis
025_0088 randburg
025_0091 tailor
025_0095 bridgeport
025_0099 valhalla
025_0100 moo ho ipehilweng ka tsela
025_0101 bakeng sa nako e kgutshwane
025_0102 ho sireletsa le ho matlafatsa
025_0103 junior high school
025_0104 org wiki wikipedia
025_0106 ntshetsopele ya dipeo tsa oli
025_0107 sam
025_0108 moralo wa leano la puo
025_0109 tsa larvae hammoho le mahe
025_0110 system
025_0113 internet protocol suite
025_0114 hore ho na le tshebetso
025_0115 madison square garden
025_0117 lefapheng la kgwebo le indasteri
025_0118 european economic area
025_0119 electron transport chain
025_0120 wa lekgotla la naha la
025_0121 le reng limited le tla
025_0122 tlhahiso ya poone le mmaraka
025_0123 leqephe la pele la foromo
025_0124 supreme court ruled
025_0127 ka morero wa ho matlafatsa
025_0128 wa afrika borwa ya hlokahetseng
025_0129 e ntshitsweng ke bolaodi bo
025_0136 ha eba kere e potolohisang
025_0139 seo o hopotseng ho se
025_0142 human development index
025_0143 new york jets
025_0145 rala mme o romele ditokomene
025_0150 united states army
025_0153 best supporting actor
025_0155 disebediswa tse seng di ile
025_0157 tlasa merero e hlwauweng mona
025_0163 van der waals
025_0164 di tswela pele ho sa
025_0165 congressional gold medal
025_0167 moscow state university
025_0183 red blood cells
025_0184 ke ke wa kgona ho
025_0188 united states census
025_0190 tsebisa ka ho o ngolla
025_0196 golden globe winners
025_0200 royal albert hall
025_0201 north west company
025_0202 potter's
025_0203 ka mokgwa o nepahetseng nakong
025_0205 setifikeiti sa tswalo sa afrika
025_0208 naha ya afrika borwa ba
025_0209 john
025_0210 ba bangata ba ile ba
025_0212 lekala
025_0213 e nngwe ya tsona e
025_0215 ditaba tse amanang le molao
025_0216 american psychiatric association
025_0217 mahola e tshwanetse ho etswa
025_0221 se fetileng sa hlabula e
025_0222 seng le lefilwe bakeng sa
025_0225 laesense ya boditjhaba ya ho
025_0230 pholisi ya naha ya batjha
025_0238 nako e telele ho tiisitse
025_0240 russian civil war
025_0243 president george
025_0247 re kopa hore o ele
025_0248 e tswang ho registrar of
025_0253 bilateral immunity agreement
025_0255 north germanic languages
025_0256 bill
025_0261 strong nuclear force
025_0266 feta pele hore ho na
025_0276 high seas fleet
025_0279 proffesor
025_0280 roman catholic priests
025_0283 big bang model
025_0287 following world war
025_0290 good
025_0293 hall
025_0295 ho ntsha raporoto ya radiology
025_0298 holy hand grenade
025_0299 october
025_0302 strategic air command
025_0311 senqu
025_0313 midrand
025_0314 a ka nna a baka
025_0316 ya poso e sa risefuwang
025_0317 le ho romela ditokomane ho
025_0320 sa witblits se neng se
025_0321 san francisco giants
025_0323 efe kapa efe eo ho
025_0324 formal diplomatic relations
025_0326 united states geological
025_0327 fifa world cup
025_0328 batho
025_0329 ya pele e neng e
025_0335 rona bo tataiswe haholo ke
025_0336 ka ho lekola tswelopele ya
025_0339 maseru
025_0342 ozone layer protection
025_0345 tikoloho
025_0346 le hore re tle re
025_0348 lekgotleng la dinyewe ho tla
025_0355 provenseng kang ho tla ba
025_0357 central
025_0362 army air corps
025_0363 screen actors guild
025_0364 common law jurisdictions
025_0366 ka nepo le ho boloka
025_0379 cathode ray tube
025_0380 american film producers
025_0384 e na le boikarabelo ba
025_0385 national hockey league
025_0387 award winning authors
025_0389 tswela pele ho sebetsa le
025_0391 randfontein
025_0392 haholo ke moruo wa tsona
025_0393 empire
025_0394 convention
025_0396 ba ka hodimo ho dilemo
025_0397 durban
025_0400 law enforcement agencies
025_0402 best foreign language
025_0404 military coup
025_0410 eo re neng re e
025_0411 recent common ancestor
025_0412 free methodist church
025_0415 grammatical
025_0418 mamelodi
025_0420 magnetic resonance imaging
025_0424 argentina ho ya afrika borwa
025_0425 american male singers
025_0427 fact date august
025_0428 leng se bolelang hore ho
025_0435 e fuwa baahi ba naha
025_0438 league baseball team
025_0442 tshebeletso ya poso e sa
025_0445 tjhelete ya hae e kenang
025_0450 environmental protection agency
025_0459 saint john river
025_0460 motho ya tshwereng thaetlele kapa
025_0463 mahareng a phato ho fihlela
025_0466 articles including recorded
025_0467 ho se ho kenwe ho
025_0479 baahi ba afrika borwa kapa
025_0483 tse felletseng tsa moo ho
025_0485 tse ding le tse ding
025_0500 larry
025_0502 nebula award winning
025_0505 thibelang lefu ka mora ketsahalo
025_0506 valence bond theory
025_0520 petroleum exporting countries
025_0530 leng hore ha ho hlokehe
025_0532 ba thupelo ba lokela ho
025_0534 tsa lehae provinseng eo o
025_0536 tlhekelo ka letona la bonono
025_0537 liberal arts college
025_0539 ya grain sa ya tlhahiso
025_0551 islamic conference oic
025_0552 general public license
025_0553 animated television series
025_0556 army occupied cypriot
025_0557 clarify date february
025_0561 american political writers
025_0563 e ngata ho feta e
025_0564 rephaboliki
025_0565 re tla dula re ntse
025_0568 south sandwich islands
025_0570 kopo e tlameha ho felehetswa
025_0571 ya ngodiso e sa kgutlisweng
025_0573 ha o a dumellwa ho
025_0577 molaotheo wa afrika borwa o
