021_0004 o ne o sebediswa ke
021_0005 e bile wa bohlokwa ho
021_0006 tiisitse hore ha ho hlwahlwa
021_0008 ho bohlokwa ka ho fetisisa
021_0009 reef
021_0010 palestinian national authority
021_0012 ho bonahala eka ha ho
021_0013 samuel's
021_0016 e na le dimojule tse
021_0017 tsa fuwa maemo a tlase
021_0019 dilemong tse mmalwa tse fetileng
021_0020 le ho haha setjhaba sa
021_0021 fact date january
021_0024 catherine
021_0029 diporofensi di a nahanwa boemong
021_0032 boston red sox
021_0037 etsa kopo bakeng sa phemiti
021_0040 ferry
021_0041 average life expectancy
021_0042 fact date july
021_0044 leng hore ha ho hlokehe
021_0046 motheo
021_0047 latelang di tla kotjwa bakeng
021_0050 di ka romelwa ofising efe
021_0051 states unemployment rate
021_0052 imperial japanese navy
021_0053 le nngwe feela afrika borwa
021_0054 liberal arts college
021_0056 tsa lehae provinseng eo o
021_0058 le ngodisitsweng mona afrika borwa
021_0060 meade
021_0062 transvala
021_0063 american voice actors
021_0065 ditlhaloso tsa lengolo la truste
021_0066 clarify date march
021_0071 ba thupelo ba lokela ho
021_0072 hard disk drive
021_0073 ba hore khopi ya foromo
021_0074 of access to information act
021_0075 episcopal church usa
021_0079 kapa badudi ba saruri ba
021_0081 nobel prize winners
021_0083 positive real numbers
021_0087 south sandwich islands
021_0088 republican party united
021_0089 dubious date april
021_0090 united states began
021_0091 tsa diporofensi di a nahanwa
021_0092 merafong le temong bakeng sa
021_0094 ka mora nako e itseng
021_0095 ya tlhahisoleseding tshebetsong ya toka
021_0096 pro football hall
021_0097 le hore ho tle ho
021_0101 ya nka bolelele ba dibeke
021_0105 northern mariana islands
021_0107 borwa di tlameha ho ngodiswa
021_0108 state university alumni
021_0110 grisly
021_0114 sa moralo wa puo ho
021_0118 ya makgulo bakeng sa kgwebo
021_0120 morao ka dilemo tse ngata
021_0121 notable examples include
021_0124 ancient near east
021_0129 austrian school economists
021_0135 fane ka nomoro ya akhauntu
021_0142 mananeo a mmuso a ho
021_0148 tlosa pompo pele ba ilo
021_0149 united states dollar
021_0150 tsa tlhahlobo tse molaong mme
021_0151 war political
021_0152 wa provinse ya bophelo bo
021_0155 memphis
021_0158 united states air
021_0160 kgothalletswa ho ithuta dipuo tse
021_0162 american political writers
021_0163 kopo ya bodulo ba saruri
021_0165 cognitive behavioral therapy
021_0166 high middle ages
021_0171 boholo ba nako e etsang
021_0174 test ban treaty
021_0177 leondale
021_0178 western european countries
021_0180 pimville
021_0182 dikgopo tsa mahlaku hloohong ya
021_0183 billy
021_0185 ka kamano ya ho se
021_0186 phetoho efe kapa efe e
021_0187 video game developers
021_0194 american musical theatre
021_0200 international astronomical union
021_0201 hang ha ho se ho
021_0202 european union member
021_0204 motherwell
021_0206 united states declaration
021_0212 mane ho isa ho a
021_0215 george
021_0218 eldorado
021_0223 ka hara lekgotla la naha
021_0225 old garden roses
021_0226 pope benedict
021_0234 ba puo e tla hloka
021_0235 valence bond theory
021_0236 american science fiction
021_0240 tshenyo e kgolo dimeleng tse
021_0242 hubble space telescope
021_0243 tshwanela ho etsa kopo ya
021_0245 president harry
021_0246 dilemong tse ngata tse fetileng
021_0248 frank lloyd wright
021_0250 balemi ba ntseng ba thuthuha
021_0251 american sign language
021_0252 comic book series
021_0253 hloleha ho etsa jwalo ho
021_0261 a kopane le nako eo
021_0264 religious
021_0269 united nations high
021_0272 kenya tshebetsong mokgwa wa ho
021_0275 animated television series
021_0279 islamic conference oic
021_0280 islamic conference oic
021_0281 aung san suu
021_0287 petroleum exporting countries
021_0289 ho tswa ho moabi ya
021_0291 music awards winners
021_0292 francisco bay area
021_0293 le moemedi wa afrika borwa
021_0296 northern
021_0298 ke mohlodi wa bohlokwa wa
021_0301 sexually transmitted diseases
021_0305 ya grain sa ya tlhahiso
021_0311 sa silafatsa phepelo ya metsi
021_0312 ho ba motswadi wa letholwa
021_0313 ludwig von mises
021_0314 theko ya oli e tala
021_0316 ho tla nne ho dule
021_0322 ba badudi ba saruri ba
021_0323 pakeng tsa batho ba babedi
021_0327 asian financial crisis
021_0328 states district court
021_0332 le mekgwa e meng ya
021_0337 leo mobu o leng ho
021_0338 dennilton
021_0339 german air force
021_0342 kopo e tlameha ho felehetswa
021_0346 roodepoort
021_0347 jwalo ka ha ho bontshitswe
021_0349 army occupied cypriot
021_0354 petroleum exporting countries
021_0357 ofisi ya iss ya afrika
021_0360 garrick
021_0361 nna tsa kgannela tshenyong e
021_0366 early morning hours
021_0368 e ya weposaeteng ya lefapha
021_0370 melbourne football club
021_0371 british foreign secretary
021_0372 ka mokgwa o hlwahlwa ho
021_0380 nebula award winning
021_0384 kiana
021_0385 king james version
021_0387 le kgahleho bophelong ba motletlebi
021_0388 ho teng ba bang ba
021_0391 o nka kilograma e le
021_0393 matsatsi a seng ka tlase
021_0394 tshwaneleha le moruo wa tshebetso
021_0395 new york jets
021_0397 dikgeong tsa mesebetsi ya sehlopha
021_0398 sebokeng sa naha bakeng sa
021_0399 united states government
021_0402 ford motor company
021_0408 kansas city royals
021_0412 make extensive use
021_0414 nna a fetoha sebaka moo
021_0419 bethal
021_0420 itseng ntle le ho ama
021_0421 hong kong island
021_0426 grand
021_0428 malwetse a pustule a bakwang
021_0429 ke molao wa motheo ho
021_0430 tlhekelo
021_0433 e tiiseditsweng ha ditokomane di
021_0435 open source initiative
021_0439 ho thehwa ha diyuniti tsa
021_0441 baemedi ba porofensi ho ncop
021_0442 tjhelete eo e seng ya
021_0446 la ho qala la nakwana
021_0447 marcel
021_0449 a sa siya wili e
021_0450 khopi e netefaditsweng ya bukana
021_0458 persian gulf states
021_0460 kapa ho hloka bokgoni ba
021_0461 ikemetseng
021_0462 ya foromo ena e fuwe
021_0465 inshorense ya tse sebediswang mobung
021_0466 tlhahisoleseding e fumanwe bukaneng ya
021_0467 california state university
021_0468 ka tsela efe kapa efe
021_0470 knights grand cross
021_0471 thibelang lefu ka mora ketsahalo
021_0472 ho fana ka beile le
021_0475 europe music
021_0476 mabapi le maemo a setjhaba
021_0477 functional programming languages
021_0479 ena ke e nngwe ya
021_0481 boyce
021_0482 tse ntjha tsa ho banka
021_0485 nka matsatsi a fihlang ho
021_0486 rephaboliki
021_0488 ho feta ka moo ho
021_0491 ho sebedisa thaere e kgolwanyane
021_0492 rapid economic growth
021_0495 professional american football
021_0496 ya south african revenue service
021_0498 lejwe
021_0499 game boy advance
021_0500 seetebosigo
021_0501 kuno e phahameng ya dijothollo
021_0502 ba dilemo tse ka hodimo
021_0503 clarify date november
021_0504 essential fatty acids
021_0505 hore ditho tsa palamente di
021_0506 american short story
021_0507 human rights record
021_0510 winter olympic games
021_0511 mong le e mong ya
021_0512 chinese civil war
021_0513 day saint movement
021_0515 ludwig von mises
021_0516 guru granth sahib
021_0523 section e ka fana ka
021_0526 mafelong a kgwedi e nngwe
021_0530 ya seteraeke kapa ho notlellwa
021_0531 e batlang e le ntle
021_0534 arizona state university
021_0535 real gdp growth
021_0538 kapa ofe ya batlang ho
021_0547 john von neumann
021_0548 n g rjuna
021_0549 institjhute
021_0551 atlantic slave trade
021_0552 ya hao setatementeng sa banka
021_0553 form hydrogen bonds
022_0010 boyce
022_0015 setsheng sa bafu sa poraefete
022_0016 ba hore khopi ya foromo
022_0021 tiisitse hore ha ho hlwahlwa
022_0024 ho tshela oli e ntjha
022_0027 a hlahisa dikgwebo tsa tsona
022_0028 mokga oo a etsang kopo
022_0029 ya ho ba teng ho
022_0031 saense ya lekgotleng la molao
022_0034 palestinian national authority
022_0036 northern mariana islands
022_0037 ice hockey team
022_0038 ho bohlokwa ka ho fetisisa
022_0039 leng hore ha ho hlokehe
022_0043 aterese le nomoro ya mohala
022_0044 ho tswa ho moabi ya
022_0048 garrick
022_0049 mananeo a mmuso a ho
022_0051 atlantic treaty organization
022_0052 ikemetseng
022_0055 american political writers
022_0060 fact date july
022_0061 nobel prize winners
022_0063 united states district
022_0065 war political
022_0072 sena se tla ba le
022_0073 le nngwe feela afrika borwa
022_0074 union member states
022_0078 tse ka hodimo ho tse
022_0080 billy
022_0081 security assistance force
022_0085 american musical theatre
022_0086 motherwell
022_0087 of access to information act
022_0094 persian gulf states
022_0095 old garden roses
022_0097 catherine
022_0099 notable examples include
022_0101 close air support
022_0106 kopo ya phemiti ya phapanyetsano
022_0107 ena ka sepheo sa ho
022_0109 open source initiative
022_0110 ka potlako ka ho ya
022_0117 dubious date april
022_0119 president harry
022_0120 kgannelang tlhaselong e eketsehang ya
022_0123 frank lloyd wright
022_0124 western european countries
022_0131 bethal
022_0132 united states began
022_0135 united states navy
022_0136 dennilton
022_0139 di ka romelwa ofising efe
022_0140 nka matsatsi a fihlang ho
022_0142 ho ngodisa jwalo ka setsebi
022_0146 sexually transmitted diseases
022_0148 early morning hours
022_0149 francisco bay area
022_0151 la ho qala la nakwana
022_0153 rapid economic growth
022_0159 grisly
022_0165 ho teng ba bang ba
022_0166 states unemployment rate
022_0167 northern
022_0171 ho isa ho tse nne
022_0172 europe music
022_0176 liberal arts college
022_0177 seetebosigo
022_0179 ford motor company
022_0180 o tshwanetse ho tseba hore
022_0182 dikgeong tsa mesebetsi ya sehlopha
022_0184 borwa di tlameha ho ngodiswa
022_0185 ho thehwa ha diyuniti tsa
022_0186 park
022_0187 ho ngodisa setsi sa tlhahlobo
022_0188 ancient near east
022_0190 sebediswang wa ho phethola mobu
022_0191 british west indies
022_0193 ho bonahala eka ha ho
022_0195 mora ho ba kopo ya
022_0196 kopo e ka se elwe
022_0197 ka modulasetulo wa sehlopha sa
022_0198 state university alumni
022_0199 e ngata ho feta e
022_0200 american nobel laureates
022_0201 ho ntlafatsa boleng ba bophelo
022_0202 animated television series
022_0203 a sa siya wili e
022_0205 ka puo ya kgetho ya
022_0206 general public license
022_0208 cognitive behavioral therapy
022_0210 hong kong island
022_0211 kopanelo ya boitshwaro bo botle
022_0212 hard disk drive
022_0213 phemiti ya ditswantle ya bongaka
022_0214 boston red sox
022_0216 haufi tsa ntshetsopele ya setjhaba
022_0219 ka hara naha ya afrika
022_0220 billion years ago
022_0222 marcel
022_0224 ho tswela pele ho ya
022_0231 music awards winners
022_0232 sa ntsaneng a le manyane
022_0235 army occupied cypriot
022_0237 mariha e hloka nako e
022_0240 ya south african revenue service
022_0243 transvala
022_0244 south
022_0245 thibelang lefu ka mora ketsahalo
022_0247 petroleum exporting countries
022_0250 video game developers
022_0251 mabapi le maemo a setjhaba
022_0252 sa dikopo moo bukana ya
022_0253 ya boitsebiso kapa setifikeiti sa
022_0254 hloleha ho etsa jwalo ho
022_0256 re tla sebetsa ka matla
022_0257 positive real numbers
022_0258 osama bin laden
022_0259 afrika borwa jwalo ka ha
022_0260 mahola ke sera sa pele
022_0262 eldorado
022_0269 di ka nna tsa fetoha
022_0270 petroleum exporting countries
022_0271 major professional sports
022_0273 balemi ba ntseng ba thuthuha
022_0278 ke wa qobella molemi ho
022_0279 black sea coast
022_0280 ya hao ka tsela ya
022_0281 inshorense ya tse sebediswang mobung
022_0282 bo botjha le ho sebedisa
022_0283 ya hao e tla lekolwa
022_0284 kansas city royals
022_0288 south sandwich islands
022_0290 clarify date march
022_0291 hloka bokgoni ba ho phetha
022_0294 old east norse
022_0295 clarify date february
022_0298 leondale
022_0302 nna a fetoha sebaka moo
022_0303 knights grand cross
022_0304 pimville
022_0306 ba thupelo ba lokela ho
022_0307 ke boikarabelo ba moahi e
022_0311 tsa fuwa maemo a tlase
022_0318 letowana
022_0320 la nakwana le lokelwang ho
022_0322 national baseball hall
022_0323 ludwig von mises
022_0326 sound
022_0330 mabapi le tshireletso ya dijo
022_0331 reef
022_0332 states district court
022_0333 republican party united
022_0335 african unity oau
022_0339 ba badudi ba saruri ba
022_0340 ba puo e tla hloka
022_0342 wa setjhaba lawrence mushwana o
022_0344 ya naha le ya matjhaba
022_0348 polasi le nang le boleng
022_0349 ba ratang naha ya habo
022_0351 tswa dinaheng tsa ka ntle
022_0352 dilemong tse ngata tse fetileng
022_0354 fact date january
022_0355 make extensive use
022_0356 ho fana ka beile le
022_0358 ho kenyelletswa le ditaba tse
022_0359 eo ho dumellanweng ka yona
022_0360 grand
022_0361 high middle ages
022_0364 dikokwanyana ka thibelo ya mefuta
022_0366 e tshwanetse ho phethwa ka
022_0369 united states declaration
022_0370 merafong le temong bakeng sa
022_0371 le tumello e ngotsweng fatshe
022_0373 ke mang ya ka etsang
022_0375 ho tla nne ho dule
022_0376 samuel's
022_0381 ho etsa kopo ya tumello
022_0382 nna tsa kgannela tshenyong e
022_0385 george
022_0388 di ka qojwang ka teng
022_0393 nebula award winning
022_0397 dikgatiso tsa tshebediso ya dipuo
022_0398 new testament canon
022_0400 pope benedict
022_0401 hlalositsweng bakeng sa ditjhelete tse
022_0402 tse tshwanetseng ho elwa hloko
022_0404 khopi ya rasiti e saennweng
022_0405 ke molao wa motheo ho
022_0409 ka rakonteraka o na le
022_0413 game boy advance
022_0415 efe kapa efe ya yona
022_0418 pakeng tsa batho ba babedi
022_0423 tlhahisoleseding e fumanwe bukaneng ya
022_0424 american free trade
022_0426 islamic conference oic
022_0427 king james version
022_0432 tone ka nngwe ho tsamaisa
022_0442 o nka kilograma e le
022_0446 theko ya sehlahiswa le bongata
022_0449 kenya tshebetsong mokgwa wa ho
022_0450 ho ya ka palohare ya
022_0452 hubble space telescope
022_0453 british foreign secretary
022_0462 lengolo la tumello haeba o
022_0463 ya tse romellwang ka ntle
022_0464 larry
022_0465 united states government
022_0466 kiana
022_0467 kopo ya ho ngodisa khampani
022_0470 episcopal church usa
022_0471 tse lokelang ho ba ka
022_0473 rephaboliki
022_0475 monyakeng
022_0476 asian financial crisis
022_0477 roman catholic archbishops
022_0478 itseng ntle le ho ama
022_0480 fane ka nomoro ya akhauntu
022_0487 le kgahleho bophelong ba motletlebi
022_0488 german air force
022_0490 kopo e tlameha ho felehetswa
022_0491 fihlwang ho yona ya mohlahisi
022_0494 pro football hall
022_0495 a dintwa tsa ka malapeng
022_0496 tla neha ba leloko sebaka
022_0499 austrian school economists
022_0501 nka nako e telele ho
022_0502 los angeles county
022_0504 tswang dipuong tsa sehlopha sa
022_0505 essential fatty acids
022_0508 mabapi le puo tsa lefapha
022_0513 palamente ya rephaboliki ya afrika
022_0514 bonaparte
022_0515 ya b di be tharo
022_0516 jwalo ka o motjha mme
022_0517 etsa diketso tse hlabisang dihlong
022_0518 treaty organization nato
022_0521 dikgatiso tsa menwana ya mokopi
022_0522 chinese communist party
022_0524 received mixed reviews
022_0526 ya afrika borwa ba dilemo
022_0528 ke e nngwe ya dintlha
022_0529 e leng commission for conciliation
022_0532 eo ba nang le yona
022_0533 ludwig von mises
022_0536 le ona o hlokometse hore
022_0537 institjhute
022_0538 afidaviti eo ho entsweng kano
022_0539 ebe o nka kilograma e
022_0540 lekgotla la afrika borwa la
022_0541 ya tswelang pele ka mosebetsi
022_0544 native american tribes
022_0545 clarify date november
022_0546 real gdp growth
022_0550 ho etsa qeto mabapi le
022_0551 central processing unit
022_0554 human rights record
022_0555 guru granth sahib
022_0556 ho balwa ka botebo le
022_0557 a se ke a kena
022_0559 ho ya ka dipehelo tsa
022_0561 john von neumann
022_0563 o loketseng tlhahiso ya dijothollo
022_0564 winter olympic games
022_0565 tlameha ho tlatswa ke mokopi
022_0575 form hydrogen bonds
022_0577 dutton
022_0578 arizona state university
022_0579 kuno e phahameng ya dijothollo
022_0580 ya nang le phemiti ya
022_0581 ho na le ditsela tse
022_0582 social democratic party
022_0584 na le tshepo ya hore
022_0585 etsa hore a kgone ho
022_0590 moo o ile wa sebediswa
022_0591 kansas state university
022_0592 sehla se hlahlamang sa ho
022_0593 le ba nang le seabo
022_0596 missing living people
022_0597 seteisheneng sa mapolesa se haufi
022_0598 nna ha etsahala hore o
022_0599 ya seteraeke kapa ho notlellwa
022_0600 e nngwe ho ya ho
022_0601 ba mmalwa le traste ditho
022_0602 ditshebeletso tsa sepolesa sa afrika
022_0605 bahwebi ba sa sebedise tlwaelo
022_0606 kapa ofe ya batlang ho
022_0607 guano islands act
022_0608 united states federal
022_0609 chinese civil war
022_0612 a mmalwa ho ya dibekeng
022_0614 mafelong a kgwedi e nngwe
022_0616 day saint movement
022_0617 tla tswela pele ho sebetsa
022_0618 terekere le disebediswa tsa temo
022_0619 united arab emirates
022_0620 international financial institutions
022_0622 american short story
022_0623 david
022_0626 international criminal court
022_0628 ho phetholwa ha pele ha
022_0630 late twentieth centuryodowska curie
022_0631 folaga e ntle ka ho
022_0632 internal combustion engine
022_0636 mtv video music
022_0637 ya bt di tshwanetse ho
022_0638 ya ka maemo a amohelehileng
022_0640 diphaphosing tsa borutelo ka nako
022_0641 edwin
022_0642 pope urban
022_0643 ha ba hloke ho ntsha
022_0647 qhamakwane
022_0648 ho ithuta dipuo tse ding
022_0650 quantum field theory
022_0651 mekgwa le melao ya ho
022_0652 wa afrika borwa ntle le
022_0653 pele ho ngodiso ho ya
022_0654 power parity comparisons
022_0656 education
022_0657 major political parties
022_0658 president woodrow wilson
022_0659 merero e ntlafaditsweng ya tlhahiso
022_0660 ho latela dipehelo tsa molao
022_0663 tse nyenyane le tse mahareng
022_0665 san pedro sula
022_0667 social democratic parties
022_0668 kopo ya hao ka tsela
022_0669 batho ba afrika borwa bao
022_0670 states presidential candidates
022_0671 pakeng tsa afrika borwa le
022_0672 itshebetsang puong jwalo ka bafetoledi
023_0001 church turing thesis
023_0003 mabitso a bonkgetheng bakeng sa
023_0005 monroe
023_0006 united states senate
023_0009 science fiction novel
023_0010 golden globe winners
023_0014 chancellorsville
023_0017 sa witblits se neng se
023_0025 laesense ya boditjhaba ya ho
023_0032 terekere le disebediswa tsa polasing
023_0033 ka mokgwa o hlakileng ho
023_0041 common law jurisdictions
023_0049 durban
023_0057 sehlopheng sa rona sa tshebetso
023_0058 moo ho ipehilweng ka tsela
023_0059 hartbeespoort
023_0060 sa leano la ditekanyetso tsa
023_0062 electron transport chain
023_0064 kopo ya setefikeiti sa ho
023_0066 sebedisa tlhahisoleseding e kentsweng ke
023_0067 screen actors guild
023_0068 ke ke wa kgona ho
023_0071 internet protocol suite
023_0075 court ha e le traste
023_0076 van der waals
023_0077 o motsho le o mosweu
023_0078 moaho wa lekgotla la naha
023_0080 tailor
023_0082 ho se ho kenwe ho
023_0084 kgahlanong le dikgoka ho basadi
023_0085 madison square garden
023_0088 seng le lefilwe bakeng sa
023_0089 magnetic resonance imaging
023_0095 banna le basadi ba na
023_0103 wa lekgotla la naha la
023_0105 french west africa
023_0107 mabapi le sehla se tlang
023_0110 power parity comparisons
023_0113 american film producers
023_0115 national science foundation
023_0117 e tla fapana ka ho
023_0120 feta pele hore ho na
023_0124 ya tshwereng thaetlele kapa monga
023_0125 efe kapa efe eo ho
023_0129 midrand
023_0131 numeric character references
023_0135 european economic area
023_0136 tadimilwe thibelo ya tlhodisano le
023_0138 ha e kenyeletse hlapi ya
023_0143 recent common ancestor
023_0147 tlamehile maoto le matsoho ho
023_0148 bakeng sa morwalo o mong
023_0149 best supporting actor
023_0150 tlhahiso ya dijothollo mobung o
023_0151 international atomic energy
023_0154 akhaonteng e latelang ya banka
023_0155 man
023_0156 bao e leng ditho tsa
023_0157 miller's
023_0158 le ho tempuwa ke mosebeletsi
023_0159 kenngwa ha jine ya bt
023_0160 neelane ka kopo ya hao
023_0161 hall
023_0164 hore ditokomane tsa mmuso ha
023_0166 mmalwa le traste ditho tsohle
023_0167 tse ka hodimo tsa mobu
023_0169 e leng se etsang hore
023_0173 ho fanwa ka sona ka
023_0174 nfc championship game
023_0175 bona ba na le tokelo
023_0176 o neng o rena ditherisanong
023_0177 mokgwa wa elektroniki kapa khaontareng
023_0178 human development index
023_0179 haholo ke moruo wa tsona
023_0180 randfontein
023_0181 federal trade commission
023_0182 haufi le wena kapa ba
023_0187 hospital
023_0190 phepelo ya dijo tsa polasing
023_0192 la provinse kapa la naha
023_0193 mang ya ikemiseditseng ho nehelana
023_0194 fact date august
023_0196 e na le boikarabelo ba
023_0198 phethahatso ya leano lena e
023_0199 supreme court ruled
023_0203 free methodist church
023_0204 palestine liberation organization
023_0206 ozone layer protection
023_0212 articles including recorded
023_0213 ha eba o hloleha ho
023_0216 states environmental protection
023_0217 american psychiatric association
023_0218 etsa boipiletso ho letona la
023_0220 bafta winners people
023_0225 mabapi le tlhahiso ya koro
023_0228 madison square garden
023_0229 award winning authors
023_0231 buddhism
023_0232 eighty years war
023_0233 ho etsa kopo ya taelo
023_0234 army air corps
023_0237 ka mokgwa o sa tlwaelehang
023_0239 mesebetsi e itseng ka ho
023_0244 argentina ho ya afrika borwa
023_0245 mabapi le mefuta e metle
023_0246 convention
023_0248 sapoto jwalo ka ha e
023_0250 primitive recursive functions
023_0253 strong nuclear force
023_0260 ngotsweng ya ho ngodisa ofising
023_0261 law enforcement agencies
023_0262 ho se na motho ya
023_0264 national hockey league
023_0265 supreme allied commander
023_0267 baheno
023_0268 randburg
023_0269 kopi e tiiseditsweng ya bukana
023_0271 national football team
023_0272 tsitsitseng mmusong maemong le ha
023_0273 tsa taolo ka dikhemikhale le
023_0274 central
023_0278 motho ka mong o tlamehile
023_0283 bad
023_0284 american jewish people
023_0287 di ka etswa hape le
023_0289 ya hae ntle ho lebaka
023_0291 october
023_0292 tlasa merero e hlwauweng mona
023_0295 tla romelwa seteisheneng sa mapolesa
023_0297 fiction television series
023_0298 tlhahiso ya poone le soneblomo
023_0299 mokgatlo o emetseng basebeletsi tumellanong
023_0301 cathode ray tube
023_0304 tlhaho temeng ya saense ya
023_0305 russian civil war
023_0307 president george
023_0309 e nngwe ya tsona e
023_0310 league baseball team
023_0313 nelson mandela le thabo mbeki
023_0315 centrally planned economy
023_0316 hlahisa dijothollo di phahame haholo
023_0320 moralo wa leano la puo
023_0322 tswela pele ho sebetsa le
023_0324 wa afrika borwa ya hlokahetseng
023_0326 le o mong o na
023_0327 moo motho a fumanang kuno
023_0329 congressional gold medal
023_0331 diminerale kapa mahakwe a bohlokwa
023_0332 kopo ya phemiti ya bodulo
023_0336 motho a tshwerweng ho yona
023_0338 nakong eo masimo a tlohetsweng
023_0340 history
023_0341 tse phahameng tsa taolo ka
023_0343 tsena tsohle di ile tsa
023_0344 leng se bolelang hore ho
023_0345 motho e mong ya nang
023_0348 tsa larvae hammoho le mahe
023_0349 e kenella tlase mobung le
023_0351 tlwaelo e ke ke ya
023_0352 dikopo tse sa tlatswang ka
023_0357 blood
023_0358 ho tholwa ha ngwana ka
023_0359 nako e telele ho tiisitse
023_0362 new york yankees
023_0364 saint john river
023_0367 united states army
023_0368 original game boy
023_0372 tumello e ngotsweng fatshe e
023_0373 modern orthodox judaism
023_0375 potter's
023_0378 environmental protection agency
023_0379 empire
023_0380 north germanic languages
023_0381 tokomane eo o batlang ho
023_0382 nuclear test ban
023_0383 john
023_0384 junior high school
023_0385 south asian association
023_0387 bridgeport
023_0388 protea
023_0390 new york jets
023_0391 golden globe film
023_0392 gibbon
023_0393 dingane
023_0394 e tswang ho registrar of
023_0395 september
023_0396 o ile a fana ka
023_0397 ntate wa ngwana ya tswetsweng
023_0399 red blood cells
023_0400 bill
023_0401 ya mobu bakeng sa ntshetsopele
023_0405 system
023_0406 american male singers
023_0407 butlebutle ka mokgwa o ke
023_0410 citation needed april
023_0412 best foreign language
023_0414 television shows set
023_0415 ofisi ya lefapha le haufi
023_0416 good
023_0418 royal albert hall
023_0419 kofi
023_0421 bragg
023_0425 great lakes region
023_0434 tshebeletso ya poso e sa
023_0436 ka mokgwa o nepahetseng nakong
023_0441 disebediswa tse seng di ile
023_0446 following world war
023_0449 leng le le leng kapa
023_0453 fifa world cup
023_0457 united states census
023_0461 e nang le share capital
023_0462 ka dikopi tse tiiseleditsweng tsa
023_0463 ka ntle ya batlang ho
023_0469 senqu
023_0471 african
023_0472 proffesor
023_0474 motor vehicle manufacturers
023_0476 big bang model
023_0477 ho na le mefuta e
023_0478 foreign direct investment
023_0480 complaints
023_0485 san francisco giants
023_0486 le eneji le la dikgwebo
023_0487 diprojeke tsa bohlokwa tsa lenaneo
023_0488 moahi wa naha ya afrika
023_0489 bilateral immunity agreement
023_0490 maseru
023_0491 hoer leano le phethahale bophelong
023_0492 mahola e tshwanetse ho etswa
023_0493 dikarolo dife kapa dife tse
023_0495 ho lefa molato wa hao
023_0496 batsi mabapi le sekgahla sa
023_0498 ho ngodisa jwalo ka setsebi
023_0499 tlhekelo ka letona la bonono
023_0502 a ka nna a fafatswa
023_0503 hloka tumello e ikgethang e
023_0504 station
023_0505 ho beha leihlo tshebediso ya
023_0506 united states district
023_0507 a hlahisa dikgwebo tsa tsona
023_0508 tsa mokgatlo kapa mokgatlo wa
023_0509 ena ke e nngwe ya
023_0510 liberal arts college
023_0511 phahameng ya poone le mmaraka
023_0512 science fiction hall
023_0513 mahola ke sera sa pele
024_0001 ice hockey team
024_0002 ka kamano ya ho se
024_0003 catherine
024_0004 yona ha feela le tla
024_0005 latela dipehelo tsa molao wa
024_0007 ka mokgwa ofe kapa ofe
024_0008 republican party united
024_0009 phetoho efe kapa efe e
024_0010 le ho haha setjhaba sa
024_0011 botoloki ka mohala tsa afrika
024_0012 moahi wa afrika borwa kapa
024_0014 ya seteraeke kapa ho notlellwa
024_0015 ho bohlokwa ka ho fetisisa
024_0016 leo mobu o leng ho
024_0017 lefuweng bakeng sa tokelo ya
024_0018 nebula award winning
024_0019 bakeng la tsebo ya mosebetsi
024_0021 national baseball hall
024_0022 united states government
024_0024 aung san suu
024_0025 khopi e netefaditsweng ya bukana
024_0026 cognitive behavioral therapy
024_0027 hang ha ho se ho
024_0029 ba badudi ba saruri ba
024_0030 nka matsatsi a fihlang ho
024_0031 ha eba poone e iswa
024_0032 sefe sa tlhahlobo ya laesense
024_0034 london
024_0035 tsa diporofensi di a nahanwa
024_0038 roman catholic archbishops
024_0040 british foreign secretary
024_0041 grisly
024_0042 union member states
024_0045 ya tlhahisoleseding tshebetsong ya toka
024_0046 theko ya sehlahiswa le bongata
024_0047 melbourne football club
024_0049 hlahisa ditabatabelo le mehopolo ya
024_0051 tsa lehae provinseng eo o
024_0052 ya phemiti ya mosebetsi ya
024_0054 billy
024_0055 le katleho ya sepheo sa
024_0057 african unity oau
024_0059 northern mariana islands
024_0062 tshebediso e sa lokang ya
024_0065 baemedi ba porofensi ho ncop
024_0067 american television actors
024_0068 ho tshela oli e ntjha
024_0070 pope benedict
024_0071 mokopi le mohatsa hae ba
024_0073 austrian school economists
024_0076 sa ntsaneng a le manyane
024_0077 ya nka bolelele ba dibeke
024_0079 animated television series
024_0081 dubious date april
024_0082 sebaka moo sepudutsi se ke
024_0083 united nations high
024_0084 lejwe
024_0085 western united states
024_0086 francisco bay area
024_0087 meade
024_0088 tse ka hodimo ho tse
024_0089 tlhakiso ya mahlale a puo
024_0091 dikokwanyana ka thibelo ya mefuta
024_0093 game boy advance
024_0094 kopo ya ho ngodisa khampani
024_0095 bethal
024_0096 united states dollar
024_0098 of access to information act
024_0102 ditlhaloso tsa lengolo la truste
024_0103 moo e leng hore ho
024_0105 tlameha ho felehetsa kopo ka
024_0107 ho ngodisa khampani e poraefete
024_0108 ke molao wa motheo ho
024_0109 ikopanye le ofisi ya lefapha
024_0110 e tiiseditsweng ha ditokomane di
024_0111 sa moralo wa puo ho
024_0112 ya hao ya boitsebiso kapa
024_0114 united states began
024_0115 comic book series
024_0116 inshorense ya tse sebediswang mobung
024_0119 european union member
024_0121 functional programming languages
024_0122 ba hore khopi ya foromo
024_0124 kopanelo ya boitshwaro bo botle
024_0125 security assistance force
024_0127 atlantic treaty organization
024_0128 fact date january
024_0132 garrick
024_0134 billion years ago
024_0137 persian gulf states
024_0138 ya makgulo bakeng sa kgwebo
024_0140 tsebiso ya lefapha le molaong
024_0143 islamic conference oic
024_0146 petroleum exporting countries
024_0147 diporofensi di a nahanwa boemong
024_0148 western european countries
024_0152 american sign language
024_0153 ka hlaloswa ka mokgwa o
024_0154 mang le a mang a
024_0155 boholo ba nako e etsang
024_0157 american voice actors
024_0159 northern
024_0160 national public radio
024_0161 ya hao e tla lekolwa
024_0162 mme ho tla ya ka
024_0164 thibelang lefu ka mora ketsahalo
024_0165 kopo ya bodulo ba saruri
024_0166 o tshwanetse ho tseba hore
024_0167 tshwaneleha ka mora nako e
024_0168 united states air
024_0171 samuel's
024_0174 rapid economic growth
024_0175 close air support
024_0179 ya ho tsamaisa tshebeletso ya
024_0180 basebeletsi ba lefapha la ditaba
024_0184 ho ba le seabo lenaneong
024_0186 hong kong island
024_0188 wa provinse ya bophelo bo
024_0190 german air force
024_0192 ya naha le ya matjhaba
024_0193 ho ba motswadi wa letholwa
024_0194 notable examples include
024_0195 metsi a ka nnang a
024_0196 ke sesebediswa se sebetsang ka
024_0197 essential fatty acids
024_0198 high middle ages
024_0199 early morning hours
024_0204 box office success
024_0206 positive real numbers
024_0207 sexually transmitted diseases
024_0208 nakong ya dikgwedi tsa hlabula
024_0209 ba puo e tla hloka
024_0210 ho thehwa ha diyuniti tsa
024_0211 asian financial crisis
024_0212 puo ya bajete le setatemente
024_0213 mabapi le tshireletso ya dijo
024_0216 tswa dinaheng tsa ka ntle
024_0217 roodepoort
024_0218 music awards winners
024_0219 open source initiative
024_0220 ke wa qobella molemi ho
024_0221 ho qetela la ho sebetsa
024_0222 ho tswela pele ho ya
024_0223 dikgeong tsa mesebetsi ya sehlopha
024_0225 letowana
024_0226 fact date july
024_0227 tlhahisoleseding e fumanwe bukaneng ya
024_0228 park
024_0229 ancient near east
024_0231 dikgatiso tsa tshebediso ya dipuo
024_0232 kapa o tshwerwe tlasa mental
024_0233 tse tshwanetseng ho elwa hloko
024_0235 itseng ntle le ho ama
024_0237 e tshwanetse ho phethwa ka
024_0239 palestinian national authority
024_0240 wa batswadi kapa mohlokomedi wa
024_0242 e ya weposaeteng ya lefapha
024_0243 tshwaneleha le moruo wa tshebetso
024_0244 major professional sports
024_0245 nobel prize winners
024_0246 royal dutch shell
024_0247 ka mokgwa o hlwahlwa ho
024_0249 kgannelang tlhaselong e eketsehang ya
024_0250 grand
024_0251 ya bt papisong le mekgwa
024_0254 south sandwich islands
024_0257 south
024_0258 ba ratang naha ya habo
024_0259 boyce
024_0260 british west indies
024_0261 ho itsebisa jwalo ka ntate
024_0262 nna a fetoha sebaka moo
024_0263 le tumello e ngotsweng fatshe
024_0264 american nobel laureates
024_0265 morao ka dilemo tse ngata
024_0266 motheo
024_0267 o lokela ho etsa kopo
024_0268 setsheng sa bafu sa poraefete
024_0269 pele ho ka jalwa sejothollo
024_0270 ikemetseng
024_0273 n g rjuna
024_0275 fihlwang ho yona ya mohlahisi
024_0279 islamic conference oic
024_0280 war political
024_0281 general public license
024_0282 le nngwe feela afrika borwa
024_0283 saense ya lekgotleng la molao
024_0287 ka hara naha ya afrika
024_0290 ka puo ya kgetho ya
024_0292 clarify date february
024_0293 le ngodisitsweng mona afrika borwa
024_0294 ford motor company
024_0295 le haebe ho boletswe ka
024_0297 average life expectancy
024_0299 afrika borwa jwalo ka ha
024_0300 ba le seabo ha basadi
024_0301 king james version
024_0302 ho fumana kalafo ya bongaka
024_0303 united states declaration
024_0304 states district court
024_0305 clarify date march
024_0306 monetary fund imf
024_0308 hlalositsweng bakeng sa ditjhelete tse
024_0309 botle le ditabatabelo tsa ditho
024_0310 a dintwa tsa ka malapeng
024_0311 larry
024_0312 ho tswa ho moabi ya
024_0314 ho ngodisa setsi sa tlhahlobo
024_0315 mananeo a mmuso a ho
024_0320 tone ka nngwe ho tsamaisa
024_0321 ba thupelo ba lokela ho
024_0323 le hore re kgone ho
024_0324 le kgahleho bophelong ba motletlebi
024_0327 di ka romelwa ofising efe
024_0328 leondale
024_0330 aterese le nomoro ya mohala
024_0331 re tla tswela pele ka
024_0332 tiisitse hore ha ho hlwahlwa
024_0333 hubble space telescope
024_0334 hauhelele
024_0336 religious
024_0337 tsa palamente di tlameha ho
024_0338 black sea coast
024_0339 wa seboka sa naha le
024_0341 tse haufi tsa ntshetsopele ya
024_0342 ho etsa diteko tsa hiv
024_0343 mabapi le maemo a setjhaba
024_0344 american musical theatre
024_0346 lengolo la tumello haeba o
024_0347 united states navy
024_0348 batlang ho fumana boahi ba
024_0353 knights grand cross
024_0354 episcopal church usa
024_0355 ya ditaba tsa lehae kapa
024_0357 state university alumni
024_0358 president harry
024_0359 ho ntlafatsa boleng ba bophelo
024_0363 american musical theatre
024_0364 frank lloyd wright
024_0365 dikgopo tsa mahlaku hloohong ya
024_0366 imperial japanese navy
024_0367 international astronomical union
024_0369 e poraefete ya ho fihlella
024_0371 ludwig von mises
024_0372 hard disk drive
024_0373 phemiti ya ditswantle ya bongaka
024_0375 mmala o motsho le bosweu
024_0377 le mekgwa e meng ya
024_0379 hloleha ho etsa jwalo ho
024_0380 kopo e tlameha ho felehetswa
024_0382 clarify date november
024_0383 latelang di tla kotjwa bakeng
024_0384 mane ho isa ho a
024_0385 wa ho qala wa leloko
024_0386 leng hore ha ho hlokehe
024_0391 ke mohlodi wa bohlokwa wa
024_0394 malwetse a pustule a bakwang
024_0395 memphis
024_0396 ya south african revenue service
024_0397 lokela ho phatlalatsa ditokomane hanghang
024_0399 valence bond theory
024_0401 tumellano ya nakwana le seng
024_0402 ofe kapa ofe wa mmuso
024_0403 borwa di tlameha ho ngodiswa
024_0405 sekgahla sa ho mela ha
024_0406 monyakeng
024_0407 la ho qala la nakwana
024_0412 e netefaditsweng ya bukana ya
024_0414 temeng ya saense ya lekgotleng
024_0417 ke notary public kapa mokhomishenara
024_0418 ya tlhaselo e eso fihle
024_0419 europe music
024_0420 phasepoto ya hao ya afrika
024_0422 a sa siya wili e
024_0423 balemi ba ntseng ba thuthuha
024_0425 ka baka la sephetho se
024_0430 eldorado
024_0432 kenya tshebetsong mokgwa wa ho
024_0433 dennilton
024_0435 jwalo ka ha ho bontshitswe
024_0436 ho kganna ya borutehi bo
024_0439 moya wa ho etsa dintho
024_0440 video game developers
024_0442 kiana
024_0443 re tla sebetsa ka matla
024_0445 ka moo ho ka kgonehang
024_0446 tsamaiso ya sehlopha sa boithuto
024_0450 new testament canon
024_0451 ho fafatsa kgahlanong le mahola
024_0452 ho bonahala eka ha ho
024_0453 tshebediso e phahameng ya sesebediswa
024_0454 extension
024_0455 management
024_0456 polasi le nang le boleng
024_0458 ka puo la afrika borwa
024_0459 kgothalletswa ho ithuta dipuo tse
024_0460 winter olympic games
024_0462 khopi ya rasiti e saennweng
024_0463 sebediswang wa ho phethola mobu
024_0464 fane ka nomoro ya akhauntu
024_0466 nna tsa kgannela tshenyong e
024_0467 kopo e ka se elwe
024_0468 tsa theko ya sehlahiswa le
024_0469 ramolodi
024_0470 ka hara lekgotla la naha
024_0471 ho feta ka moo ho
024_0472 rephaboliki
024_0473 dilemong tse ngata tse fetileng
024_0474 western united states
024_0475 la nakwana le lokelwang ho
024_0481 sebokeng sa naha bakeng sa
024_0482 states unemployment rate
024_0484 merafong le temong bakeng sa
024_0485 ha o a dumellwa ho
024_0486 batshwaruwa
024_0487 army occupied cypriot
024_0493 wa setjhaba lawrence mushwana o
024_0495 tsamaiso ya mawatle le mabopo
024_0496 pimville
024_0498 petroleum exporting countries
024_0502 real gdp growth
024_0504 american short story
024_0505 kuno e phahameng ya dijothollo
024_0506 ho ya ka dipehelo tsa
024_0507 halleck
024_0508 e batlang e le ntle
024_0509 mong le e mong ya
024_0511 arizona state university
024_0512 form hydrogen bonds
024_0516 atlantic slave trade
024_0518 nakong ya matsatsi a balemi
024_0519 a se ke a kena
024_0520 chinese civil war
024_0522 hloka bokgoni ba ho nehelana
024_0523 guru granth sahib
024_0525 ya b di be tharo
024_0526 ba dilemo tse ka hodimo
024_0527 institjhute
024_0528 mafelong a kgwedi e nngwe
024_0529 lengolo le tswang ho setho
024_0531 ludwig von mises
024_0532 wayne state university
024_0535 human rights record
024_0536 john von neumann
024_0537 tekolo botjha ya ditlwaelo le
025_0003 buddhism
025_0009 harry
025_0010 early church fathers
025_0011 ha re sebetsa mmoho re
025_0014 foreign direct investment
025_0016 primitive recursive functions
025_0018 ho tloha sebopehong sa kgale
025_0020 ho suthisa ka ho ya
025_0021 average family size
025_0022 chancellorsville
025_0024 re tsebang ho sebetsa re
025_0025 man
025_0026 ho behela taelo ka thoko
025_0027 a diphoofolo tsa afrika borwa
025_0028 blood
025_0029 ho ntse ho na le
025_0030 dipeo le dipeo tse hlahang
025_0035 september
025_0036 e tla fapana ka ho
025_0038 ka mokgwa o hlakileng ho
025_0040 o neng o rena ditherisanong
025_0047 nuclear test ban
025_0048 di ka etswa hape le
025_0049 o ne a atisa ho
025_0052 original game boy
025_0056 monroe
025_0058 e nang le share capital
025_0059 etsa hore balemi ba kgone
025_0060 seboka sa naha le lekgotla
025_0061 ha fela ho sa ntse
025_0062 nfc championship game
025_0064 tse ka hodimo tsa mobu
025_0066 basebeletsi ba hao le dijothollo
025_0067 naha ya afrika borwa kapa
025_0068 wa etsa tshebetso tsa kgwebisano
025_0069 states environmental protection
025_0072 miller's
025_0075 gibbon
025_0076 bragg
025_0083 church turing thesis
025_0088 randburg
025_0091 tailor
025_0095 bridgeport
025_0099 valhalla
025_0100 moo ho ipehilweng ka tsela
025_0101 bakeng sa nako e kgutshwane
025_0102 ho sireletsa le ho matlafatsa
025_0103 junior high school
025_0104 org wiki wikipedia
025_0106 ntshetsopele ya dipeo tsa oli
025_0107 sam
025_0108 moralo wa leano la puo
025_0109 tsa larvae hammoho le mahe
025_0110 system
025_0113 internet protocol suite
025_0114 hore ho na le tshebetso
025_0115 madison square garden
025_0117 lefapheng la kgwebo le indasteri
025_0118 european economic area
025_0119 electron transport chain
025_0120 wa lekgotla la naha la
025_0121 le reng limited le tla
025_0122 tlhahiso ya poone le mmaraka
025_0123 leqephe la pele la foromo
025_0124 supreme court ruled
025_0127 ka morero wa ho matlafatsa
025_0128 wa afrika borwa ya hlokahetseng
025_0129 e ntshitsweng ke bolaodi bo
025_0136 ha eba kere e potolohisang
025_0139 seo o hopotseng ho se
025_0142 human development index
025_0143 new york jets
025_0145 rala mme o romele ditokomene
025_0150 united states army
025_0153 best supporting actor
025_0155 disebediswa tse seng di ile
025_0157 tlasa merero e hlwauweng mona
025_0163 van der waals
025_0164 di tswela pele ho sa
025_0165 congressional gold medal
025_0167 moscow state university
025_0183 red blood cells
025_0184 ke ke wa kgona ho
025_0188 united states census
025_0190 tsebisa ka ho o ngolla
025_0196 golden globe winners
025_0200 royal albert hall
025_0201 north west company
025_0202 potter's
025_0203 ka mokgwa o nepahetseng nakong
025_0205 setifikeiti sa tswalo sa afrika
025_0208 naha ya afrika borwa ba
025_0209 john
025_0210 ba bangata ba ile ba
025_0212 lekala
025_0213 e nngwe ya tsona e
025_0215 ditaba tse amanang le molao
025_0216 american psychiatric association
025_0217 mahola e tshwanetse ho etswa
025_0221 se fetileng sa hlabula e
025_0222 seng le lefilwe bakeng sa
025_0225 laesense ya boditjhaba ya ho
025_0230 pholisi ya naha ya batjha
025_0238 nako e telele ho tiisitse
025_0240 russian civil war
025_0243 president george
025_0247 re kopa hore o ele
025_0248 e tswang ho registrar of
025_0253 bilateral immunity agreement
025_0255 north germanic languages
025_0256 bill
025_0261 strong nuclear force
025_0266 feta pele hore ho na
025_0276 high seas fleet
025_0279 proffesor
025_0280 roman catholic priests
025_0283 big bang model
025_0287 following world war
025_0290 good
025_0293 hall
025_0295 ho ntsha raporoto ya radiology
025_0298 holy hand grenade
025_0299 october
025_0302 strategic air command
025_0311 senqu
025_0313 midrand
025_0314 a ka nna a baka
025_0316 ya poso e sa risefuwang
025_0317 le ho romela ditokomane ho
025_0320 sa witblits se neng se
025_0321 san francisco giants
025_0323 efe kapa efe eo ho
025_0324 formal diplomatic relations
025_0326 united states geological
025_0327 fifa world cup
025_0328 batho
025_0329 ya pele e neng e
025_0335 rona bo tataiswe haholo ke
025_0336 ka ho lekola tswelopele ya
025_0339 maseru
025_0342 ozone layer protection
025_0345 tikoloho
025_0346 le hore re tle re
025_0348 lekgotleng la dinyewe ho tla
025_0355 provenseng kang ho tla ba
025_0357 central
025_0362 army air corps
025_0363 screen actors guild
025_0364 common law jurisdictions
025_0366 ka nepo le ho boloka
025_0379 cathode ray tube
025_0380 american film producers
025_0384 e na le boikarabelo ba
025_0385 national hockey league
025_0387 award winning authors
025_0389 tswela pele ho sebetsa le
025_0391 randfontein
025_0392 haholo ke moruo wa tsona
025_0393 empire
025_0394 convention
025_0396 ba ka hodimo ho dilemo
025_0397 durban
025_0400 law enforcement agencies
025_0402 best foreign language
025_0404 military coup
025_0410 eo re neng re e
025_0411 recent common ancestor
025_0412 free methodist church
025_0415 grammatical
025_0418 mamelodi
025_0420 magnetic resonance imaging
025_0424 argentina ho ya afrika borwa
025_0425 american male singers
025_0427 fact date august
025_0428 leng se bolelang hore ho
025_0435 e fuwa baahi ba naha
025_0438 league baseball team
025_0442 tshebeletso ya poso e sa
025_0445 tjhelete ya hae e kenang
025_0450 environmental protection agency
025_0459 saint john river
025_0460 motho ya tshwereng thaetlele kapa
025_0463 mahareng a phato ho fihlela
025_0466 articles including recorded
025_0467 ho se ho kenwe ho
025_0479 baahi ba afrika borwa kapa
025_0483 tse felletseng tsa moo ho
025_0485 tse ding le tse ding
025_0500 larry
025_0502 nebula award winning
025_0505 thibelang lefu ka mora ketsahalo
025_0506 valence bond theory
025_0520 petroleum exporting countries
025_0530 leng hore ha ho hlokehe
025_0532 ba thupelo ba lokela ho
025_0534 tsa lehae provinseng eo o
025_0536 tlhekelo ka letona la bonono
025_0537 liberal arts college
025_0539 ya grain sa ya tlhahiso
025_0551 islamic conference oic
025_0552 general public license
025_0553 animated television series
025_0556 army occupied cypriot
025_0557 clarify date february
025_0561 american political writers
025_0563 e ngata ho feta e
025_0564 rephaboliki
025_0565 re tla dula re ntse
025_0568 south sandwich islands
025_0570 kopo e tlameha ho felehetswa
025_0571 ya ngodiso e sa kgutlisweng
025_0573 ha o a dumellwa ho
025_0577 molaotheo wa afrika borwa o
026_0003 ho fanwa ka sona ha
026_0005 ofisiri ya merero ya sapoto
026_0007 borwa kapa badudi ba saruri
026_0008 eo o e fumanang ha
026_0010 tse nyenyane le tse mahareng
026_0013 moo ntate wa hae a
026_0015 botlhokong
026_0016 leloko ba batla paki ya
026_0017 los angeles county
026_0019 bonaparte
026_0022 dutton
026_0026 sebediswa jwalo ka ha ho
026_0034 marble
026_0038 pherekgong
026_0039 bonnete hore molemi ke karolo
026_0040 na le bokgoni ba ho
026_0045 states presidential candidates
026_0048 numeric character references
026_0051 president woodrow wilson
026_0053 constitution of the republic of
026_0062 higher education institutions
026_0063 kgahlanong le botlokotsebe le bobodu
026_0065 clive
026_0071 national inventors hall
026_0072 baloi
026_0075 grammy lifetime achievement
026_0076 international financial institutions
026_0077 ka ho ya ka melawana
026_0079 ya dipuo tsohle tsa semmuso
026_0080 democratic labour party
026_0081 botlalo di tla kgutlisetswa ho
026_0082 a mmalwa ho ya dibekeng
026_0083 elections took place
026_0086 mtv video music
026_0087 johnny issel le mthuli ka
026_0093 mister
026_0094 napier ke furu e ntle
026_0097 world trade center
026_0100 royal swedish academy
026_0101 batho ba habo rona hore
026_0115 social democratic parties
026_0116 savannah
026_0117 civil class
026_0118 ke mang ya jarang boikarabelo
026_0119 ditokelo tsa bamedisi ba dimela
026_0124 national inventors hall
026_0125 new prime minister
026_0129 johnny issel le mthuli ka
026_0131 le mesebetsi e mabapi le
026_0132 italian roman catholics
026_0136 ntlo ya seboka ya palamente
026_0138 camp david accords
026_0139 democratic labour party
026_0140 human genome project
026_0146 republican national convention
026_0149 san diego padres
026_0151 clarify date november
026_0153 sebediswa jwalo ka ha ho
026_0155 kapa ho toloka moo ho
026_0158 ha monga thepa a rata
026_0159 ho ithuta dipuo tse ding
026_0161 kopo ya hao ka tsela
026_0163 lengolo la bopaki la phytosanitary
026_0164 ho hlepha ho tshwanetse ho
026_0165 international financial institutions
026_0166 containing video clips
026_0167 numeric character references
026_0169 regular season games
026_0170 phethahatso
026_0171 nations general assembly
026_0176 application programming interface
026_0178 hopola hore re kgona ho
026_0179 bonaparte
026_0181 mtv video music
026_0182 a etsa qeto ya ho
026_0185 rugby union team
026_0186 federal communications commission
026_0188 lebanese armed forces
026_0190 ho phethisa kahlolo kapa taelo
026_0192 british television series
026_0194 north atlantic treaty
026_0195 ha jwale e amanang le
026_0197 supreme court justice
026_0208 statistik provisionally valued
026_0212 nebula award winning
026_0213 foromo ya tlaleho ya ditletlebo
026_0214 american film producers
026_0215 united states department
026_0218 los angeles county
026_0219 kapa e rekiswang mona afrika
026_0222 empa re ke ke ra
026_0223 ho ba molemi wa mohwebi
026_0224 democratic
026_0227 clive
026_0228 monga setsha seo sa bafu
026_0230 major league baseball
026_0231 president woodrow wilson
026_0235 tjheke e tiiseditsweng ke banka
026_0240 leo e ntshitsweng ka lona
026_0242 tsa boemedi ba naha matjhabeng
026_0245 power parity comparisons
026_0252 dinepe tse pedi tsa boholo
026_0254 united states navy
026_0256 ho emela tsohle tse mpe
026_0259 missing living people
026_0261 cold war era
026_0265 pele ho ngodiso ho ya
026_0267 late twentieth centuryodowska curie
026_0270 partially ordered set
026_0274 rugby union team
026_0277 ditokomane tse latelang tse tshehetsang
026_0280 ka kgonang ho raroloha kantle
026_0282 major political parties
026_0283 ba neng ba tingwa menyetla
026_0284 united states federal
026_0286 kgetho ya bamamedi bao ho
026_0291 harvard university people
026_0294 dilemo tse ka hodimo ho
026_0300 eyes wide shut
026_0306 leanong la naha la puo
026_0307 ho tjheswa le ho kgutliswa
026_0309 boemong bo hodimo bakeng la
026_0310 belfast
026_0313 o metha peo le manyolo
026_0314 kgahlanong le botlokotsebe le bobodu
026_0315 ba tikoloho e itseng kapa
026_0317 bo le ka tlase ho
026_0320 ditherisano tse kopanetsweng ke basebetsi
026_0321 graphical user interface
026_0322 sun
026_0326 association football clubs
026_0327 states presidential candidates
026_0330 verify credibility dater
026_0331 empa ka ha tshenyo ke
026_0335 sir francis drake
026_0337 ridgeway
026_0340 total land area
026_0341 treaty organization nato
026_0344 mokgwa o sa tlwaelehang re
026_0346 kgwebo
026_0347 ho hlwaya tefo ya hao
026_0350 zimbabwe
026_0352 qhamakwane
026_0357 e ngotsweng ke marius greyling
026_0359 cell lung carcinoma
026_0361 richmond
026_0364 lebitsong la motho e mong
026_0367 italian roman catholics
026_0368 o romele bopaki ba tefo
026_0370 american football conference
026_0377 greek orthodox church
026_0378 free software programmed
026_0380 ka sehloohong ke ho boloka
026_0381 north germanic languages
026_0385 ho latela dipehelo tsa molao
026_0390 riverside
026_0391 gross domestic product
026_0392 reactive oxygen species
026_0394 e tshwanetse ho etswa ho
026_0399 pherekgong
026_0402 a mmalwa ho ya dibekeng
026_0404 matsatsi a mahlano ho ngodisa
026_0405 le ho kenya tshebetsong ditshisinyo
026_0406 art deco buildings
026_0408 controlled substances acte
026_0409 elections took place
026_0413 mohahamoriti
026_0414 dibekeng tse pedi tse fetileng
026_0415 football league teams
026_0416 lefu kapa kotsi e bakilweng
027_0001 catherine
027_0003 bethal
027_0004 extension
027_0005 memphis
027_0008 hong kong island
027_0014 dikokwanyana ka thibelo ya mefuta
027_0015 american science fiction
027_0017 western united states
027_0019 di ka nna tsa fetoha
027_0025 western united states
027_0029 ho hloleha ho etsa jwalo
027_0030 pro football hall
027_0031 native american tribes
027_0032 states district court
027_0034 sa moralo wa puo ho
027_0036 atlantic
027_0039 mabapi le tshireletso ya dijo
027_0042 ka mokgwa o hlwahlwa ho
027_0046 kapa ofe ya batlang ho
027_0050 puo ya bajete le setatemente
027_0054 chinese civil war
027_0057 francisco bay area
027_0059 grand
027_0061 a se ke a kena
027_0063 eldorado
027_0064 asian financial crisis
027_0068 ice hockey team
027_0071 tse ding tsa dintho tseo
027_0073 notable examples include
027_0074 tshebediso e phahameng ya sesebediswa
027_0075 ke molao wa motheo ho
027_0077 chinese communist party
027_0078 new testament canon
027_0079 pope benedict
027_0080 average life expectancy
027_0081 palestinian national authority
027_0083 guru granth sahib
027_0085 borwa di tlameha ho ngodiswa
027_0086 petroleum exporting countries
027_0094 form hydrogen bonds
027_0100 billion years ago
027_0102 northern
027_0110 dennilton
027_0112 california state university
027_0113 tlhahisoleseding e fumanwe bukaneng ya
027_0116 clarify date november
027_0117 le tumello e ngotsweng fatshe
027_0121 hloka bokgoni ba ho phetha
027_0125 tumellano ya nakwana le seng
027_0127 black sea coast
027_0128 ha eba poone e iswa
027_0129 nobel prize winners
027_0130 meade
027_0131 hloka bokgoni ba ho nehelana
027_0132 ka potlako ka ho ya
027_0136 le haebe ho boletswe ka
027_0138 ha ho ne ho ena
027_0139 human rights record
027_0141 northern mariana islands
027_0145 ba ratang naha ya habo
027_0146 make extensive use
027_0153 le katleho ya sepheo sa
027_0154 austrian school economists
027_0158 mokopi le mohatsa hae ba
027_0160 tsebiso ya lefapha le molaong
027_0161 real gdp growth
027_0164 grisly
027_0167 persian gulf states
027_0168 etsa hore a kgone ho
027_0170 british west indies
027_0172 sebokeng sa naha bakeng sa
027_0173 dilemong tse mmalwa tse fetileng
027_0174 kopanelo ya boitshwaro bo botle
027_0177 early morning hours
027_0181 tshebetso tsa lekgetho la kuno
027_0183 comic book series
027_0196 ya b di be tharo
027_0197 institjhute
027_0198 monetary fund imf
027_0199 theko ya sehlahiswa le bongata
027_0202 latelang di tla kotjwa bakeng
027_0204 boyce
027_0205 music awards winners
027_0208 tse ka hodimo ho tse
027_0211 itseng ntle le ho ama
027_0212 phemiti ya ditswantle ya bongaka
027_0213 british foreign secretary
027_0215 test ban treaty
027_0217 n g rjuna
027_0218 fact date july
027_0221 box office success
027_0222 fact date january
027_0224 europe music
027_0228 episcopal church usa
027_0231 winter olympic games
027_0236 ho bohlokwa ka ho fetisisa
027_0237 le kgahleho bophelong ba motletlebi
027_0239 osama bin laden
027_0240 ikemetseng
027_0244 hang ka selemo ka mora
027_0245 afidaviti eo ho entsweng kano
027_0250 mekgatlo e adimanang ka tjhelete
027_0252 letowana
027_0253 ho ngodisa setsi sa tlhahlobo
027_0254 e bile wa bohlokwa ho
027_0255 leondale
027_0256 western european countries
027_0257 e tshwanetse ho phethwa ka
027_0261 major professional sports
027_0262 aung san suu
027_0264 united states began
027_0265 south sandwich islands
027_0266 united states government
027_0267 dubious date april
027_0270 states unemployment rate
027_0271 positive real numbers
027_0273 moo e leng hore ho
027_0274 ya hao e tla lekolwa
027_0275 ha o a dumellwa ho
027_0276 islamic conference oic
027_0277 american musical theatre
027_0278 mananeo a mmuso a ho
027_0280 foromo ya kopo ka dikopi
027_0281 pimville
027_0283 boramesebetsi ba lokela ho saena
027_0284 ho bonahala eka ha ho
027_0285 baemedi ba porofensi ho ncop
027_0287 le hore re kgone ho
027_0288 state university alumni
027_0290 essential fatty acids
027_0291 functional programming languages
027_0295 king james version
027_0297 john von neumann
027_0301 nka matsatsi a fihlang ho
027_0303 religious
027_0304 cognitive behavioral therapy
027_0306 efe kapa efe ya yona
027_0308 high middle ages
027_0316 ya phemiti ya mosebetsi ya
027_0319 security assistance force
027_0325 internal combustion engine
027_0326 president harry
027_0328 melbourne football club
027_0330 kansas city royals
027_0331 knights grand cross
027_0332 ke notary public kapa mokhomishenara
027_0336 tse ntjha tsa ho banka
027_0344 american television actors
027_0345 kopo ya phemiti ya phapanyetsano
027_0346 wa setjhaba lawrence mushwana o
027_0349 united nations high
027_0352 tlameha ho felehetsa kopo ka
027_0354 ho itsebisa jwalo ka ntate
027_0355 motherwell
027_0362 frank lloyd wright
027_0363 american free trade
027_0364 sa ntsaneng a le manyane
027_0366 la nakwana le lokelwang ho
027_0369 tswela pele ka lenaneo la
027_0370 ludwig von mises
027_0372 garrick
027_0373 samuel's
027_0379 kopo ya ho ngodisa khampani
027_0380 bakeng la tsebo ya mosebetsi
027_0382 national public radio
027_0384 day saint movement
027_0385 tse seng di ile tsa
027_0389 kapa ho hloka bokgoni ba
027_0399 le nngwe feela afrika borwa
027_0401 ludwig von mises
027_0402 sexually transmitted diseases
027_0403 london
027_0405 ba mmalwa le traste ditho
027_0408 balemi ba ntseng ba thuthuha
027_0409 american musical theatre
027_0412 ancient near east
027_0417 kenya tshebetsong mokgwa wa ho
027_0418 rapid economic growth
027_0419 tsamaiso ya mawatle le mabopo
027_0423 tlameha ho balwa ka botebo
027_0427 video game developers
027_0428 sehla se hlahlamang sa ho
027_0433 ya bt papisong le mekgwa
027_0435 inshorense ya tse sebediswang mobung
027_0439 war political
027_0440 ka puo la afrika borwa
027_0441 ya south african revenue service
027_0443 ka puo ya kgetho ya
027_0444 tsa fuwa maemo a tlase
027_0446 wa ho qala wa leloko
027_0451 nna tsa kgannela tshenyong e
027_0454 old east norse
027_0455 ya seteraeke kapa ho notlellwa
027_0457 ford motor company
027_0458 tlosa pompo pele ba ilo
027_0460 malwetse a pustule a bakwang
027_0463 kopo e tlameha ho felehetswa
027_0470 ho etsa diteko tsa hiv
027_0471 mabapi le maemo a setjhaba
027_0472 mafelong a kgwedi e nngwe
027_0473 atlantic slave trade
027_0474 ke wa qobella molemi ho
027_0478 nang le tokelo ya ho
027_0479 boston red sox
027_0485 ho kenyelletswa le ditaba tse
027_0486 moo o ile wa sebediswa
027_0487 roman catholic archbishops
027_0488 hubble space telescope
027_0489 e leng commission for conciliation
027_0493 diporofensi di a nahanwa boemong
027_0494 grain sa ya tlhahiso ya
027_0498 david
027_0499 hard disk drive
027_0500 of access to information act
027_0503 mokgwa o sa tlwaelehang re
027_0504 nka nako e telele ho
027_0506 jwaloka ha o fetisitswe le
027_0508 received mixed reviews
027_0512 international financial institutions
027_0515 tlameha ho tlatswa ke mokopi
027_0517 palamente ya rephaboliki ya afrika
027_0518 missing living people
027_0521 guano islands act
027_0523 folaga e ntle ka ho
027_0524 united arab emirates
027_0526 o loketseng tlhahiso ya dijothollo
027_0527 jwalo ka o motjha mme
027_0530 central processing unit
027_0533 lengolo la bopaki la phytosanitary
028_0006 tikoloho
028_0011 ka mokgwa o hlakileng ho
028_0012 primitive recursive functions
028_0017 golden globe film
028_0019 seng le lefilwe bakeng sa
028_0022 good
028_0035 american psychiatric association
028_0036 new york yankees
028_0038 october
028_0044 tlasa merero e hlwauweng mona
028_0046 junior high school
028_0047 le ho tempuwa ke mosebeletsi
028_0048 mme hona ho tla ya
028_0059 ke ke wa kgona ho
028_0060 magnetic resonance imaging
028_0063 south asian association
028_0065 org wiki wikipedia
028_0067 screen actors guild
028_0072 american film producers
028_0075 bridgeport
028_0078 best supporting actor
028_0091 free methodist church
028_0098 nuclear test ban
028_0100 television shows set
028_0105 military coup
028_0109 mabapi le tlhahiso ya koro
028_0114 blood
028_0118 fifa world cup
028_0120 motor vehicle manufacturers
028_0126 north germanic languages
028_0129 seo o hopotseng ho se
028_0143 supreme allied commander
028_0146 midrand
028_0151 palestine liberation organization
028_0152 tailor
028_0154 early church fathers
028_0159 saense ya tlhaho dikri diploma
028_0165 july
028_0167 e nang le share capital
028_0172 hospital
028_0173 poids et mesures
028_0176 science fiction novel
028_0180 foreign direct investment
028_0182 madison square garden
028_0188 tsa larvae hammoho le mahe
028_0192 supreme court ruled
028_0193 bilateral immunity agreement
028_0195 monroe
028_0197 bill
028_0203 league baseball team
028_0204 formal diplomatic relations
028_0207 ha ho kgethwa dipuo tseo
028_0208 convention
028_0214 tjhelete ya hae e kenang
028_0220 hall
028_0223 central
028_0226 tsosoloso ya boemo ba theshiari
028_0227 randfontein
028_0230 lokelang ho fetolelwa bafetoleding ba
028_0238 e tswang ho registrar of
028_0240 recreation
028_0247 centrally planned economy
028_0252 great lakes region
028_0253 september
028_0256 modern orthodox judaism
028_0258 man
028_0270 bafta winners people
028_0273 durban
028_0284 basebeletsi ba hao le dijothollo
028_0285 kopi e tiiseditsweng ya bukana
028_0286 united states president
028_0287 international atomic energy
028_0292 church turing thesis
028_0303 ka ntle ya batlang ho
028_0304 numeric character references
028_0316 best foreign language
028_0319 ya hae ntle ho lebaka
028_0322 system
028_0323 randburg
028_0324 strong nuclear force
028_0327 ho ntse ho na le
028_0328 internet protocol suite
028_0331 madison square garden
028_0334 kopo ya setefikeiti sa ho
028_0337 be bonolo ho palama baesekele
028_0338 nfc championship game
028_0340 power parity comparisons
028_0343 mahola e tshwanetse ho etswa
028_0345 holy hand grenade
028_0351 armoured fighting vehicles
028_0353 bad
028_0360 saint john river
028_0362 ozone layer protection
028_0370 environmental protection agency
028_0378 big bang model
028_0383 human development index
028_0397 articles including recorded
028_0415 potter's
028_0420 hore menyenyetsi e mabapi le
028_0427 senqu
028_0428 se kgethollwe ho ya ka
028_0429 buddhism
028_0431 harry
028_0433 president george
028_0434 miller's
028_0435 ba ngodise ho south african
028_0436 gibbon
028_0439 l cuin abbr
028_0450 electron transport chain
028_0451 chancellorsville
028_0452 cathode ray tube
028_0457 efe kapa efe eo ho
028_0458 red blood cells
028_0460 strategic air command
028_0461 congressional gold medal
028_0462 van der waals
028_0466 states environmental protection
028_0468 leqephe la pele la foromo
028_0480 army air corps
028_0485 following world war
028_0490 tse ding le tse ding
028_0496 empire
028_0499 sa witblits se neng se
028_0502 station
028_0504 liberal arts college
029_0001 kapa ofe ya tswelang pele
029_0002 masimong a mang le a
029_0003 ho phethisa kahlolo kapa taelo
029_0004 tse ka sebediswang ho laola
029_0006 foromong ya kopo hore na
029_0007 pokello ya lekgetho ya aforikaborwa
029_0008 tse mpe le tse nyonyehang
029_0009 ho isa ho tse robedi
029_0010 ditho tsa lekgotla la phethahatso
029_0011 birth missing living
029_0012 shejwa e le karolo ya
029_0013 kgannela tshenyong e phethahetseng ya
029_0014 tsetsepela nakong ya maemo a
029_0015 disampole kaofela tsa mobu o
029_0017 tjheke e tiiseditsweng ke banka
029_0018 molao wa taolo ya ditjhelete
029_0019 fundamental physics concepts
029_0020 tshwasa ka palo e nyenyane
029_0021 seapi
029_0022 chubby
029_0023 american foreign policy
029_0024 a puo ka ho hlahisa
029_0025 republican national convention
029_0026 etsahala hore ho be le
029_0027 ba ramosebetsi wa hao ho
029_0028 moputso wa ho qetela o
029_0029 phupu
029_0030 bala lekgetho la nakwana ka
029_0032 ipopeng
029_0033 e bonahalang nakong ya kotulo
029_0035 bileng le seabo tsamaisong ya
029_0036 puo tsa nguni le sesotho
029_0037 ho tswa dinaheng tsa ka
029_0038 hara lefapha le mafapheng a
029_0039 alexandra
029_0040 diphetolelo le tlhaolo ya diphoso
029_0041 a hlahisa a mang selemo
029_0042 american short story
029_0043 mekga efe e meng e
029_0044 ka ho ngolwa fatshe ha
029_0045 ntshetsopele ya molemi ke ho
029_0046 sebolayalehola se ngodisitswe ho ka
029_0047 lekgotla la dipuo tsohle la
029_0048 thekenoloji ya tlhahisoleseding le dikgokahano
029_0049 ho kopa bolaodi ba sebaka
029_0051 boemo bo hodimo la molemi
029_0053 kapa khampani ya ba mmalwa
029_0054 a qetella a le lefatsheng
029_0055 castel sant angelo
029_0056 digital signal processing
029_0057 romela raporoto ya ho qala
029_0058 tlhahisoleseding ya mokgwa wa ho
029_0060 sir isaac newton
029_0063 current account deficit
029_0064 o adimanang ka tjhelete o
029_0067 cambridge university press
029_0068 pope julius
029_0069 e fapaneng ya ho phethola
029_0070 containing video clips
029_0072 league baseball teams
029_0074 wa afrika borwa kapa modudi
029_0075 grand theft auto
029_0077 petrus
029_0079 ikgethang tsa selemo le selemo
029_0080 spruit
029_0081 teng ha lenyalo la setso
029_0082 le tlhophiso ha mmoho le
029_0083 mme ba sa kgone ho
029_0088 la ho phomola kapa mafelo
029_0089 computational complexity theory
029_0091 fact date december
029_0092 molao wa tshebedisano e kwetsweng
029_0093 empa ka ha tshenyo ke
029_0096 java virtual machine
029_0097 letona la ntshetsopele ya setjhaba
029_0098 los angeles county
029_0099 tshwanetse ho tswela pele ho
029_0101 la ho ntshuwa ha batshwaruwa
029_0103 thuto ya tlhokomelo ya terekere
029_0106 ya rona dilemong tse tlang
029_0107 sa kgolabolokwe e maqaphaqapha ya
029_0109 ho fumana tjhelete ya sapoto
029_0110 palohare ya phofudi ya selemo
029_0113 la ntshetsopele la grain sa
029_0117 lokelang ho latelwa ha ho
029_0122 royal national theatre
029_0123 tswa bukaneng ya grain sa
029_0124 kutung ka baka la dibokonyana
029_0125 states coast guard
029_0127 national park service
029_0130 single transferable vote
029_0131 tlameha ho latela dipehelo tse
029_0132 nakong e sa tswa feta
029_0133 ya heno e haufinyana ya
029_0136 diyuniti tsa puo di tla
029_0137 georgetown
029_0138 ya polasi mabapi le phaello
029_0140 camp david accords
029_0142 tshebetsong ha leano la puo
029_0143 napier ke furu e ntle
029_0144 nations high commissioner
029_0145 kgothaletsa ho ba le seabo
029_0147 ka tshebedisano e matla le
029_0148 strong economic growth
029_0149 ho latela ditataiso tse leng
029_0150 romela kapa ho tsamaisa tefo
029_0151 nakong ya mehato ya ho
029_0152 ya taolo ka dikhemikhale e
029_0153 digital signal processing
029_0154 grant's
029_0155 cape breton island
029_0156 mmuso o tla tswela pele
029_0157 ho tsamaya le tefello ya
029_0159 mohlahisi ya thuthuhang wa grain
029_0160 etsa karolo e kgolo ya
029_0163 free market economy
029_0164 hlahloba sefafatsi sa hao le
029_0166 sebedisa ditlhaku tse kgolo feela
029_0168 barkly
029_0169 foromo e fumaneha lefapheng la
029_0170 president abraham lincoln
029_0172 e lokela ho tsamaya le
029_0173 ba ditshebeletso tsa sepolesa sa
029_0174 ka nna ha etsahala hore
029_0175 socialist workers party
029_0176 disebediswa tse ding tsa tlatsetso
029_0178 yunione e nang le boemedi
029_0179 bakeng sa tshireletso ya seqatjwa
029_0180 ngwana a tswetswe ka ntle
029_0181 e arabelang ditlhoko tsa bona
029_0182 le dijothollo mabapi le mongobo
029_0183 tsa ho kgonahatsa puo tse
029_0184 fact date november
029_0185 medieval islamic world
029_0186 market prices estimated
029_0187 early modern period
029_0188 chinese civil war
029_0191 e etswang ka nako tse
029_0192 ho lebaka la hore hobaneng
029_0194 magnetic field lines
029_0195 hlophiswa jwalo ka dithuto tsa
029_0196 lehae kapa embasing kapa misheneng
029_0197 borasaense ba tlhaho ho hlokwa
029_0198 ya lekgotla e tla ho
029_0199 boholo bo shebaneng le balemi
029_0201 ka mora ho pudutsa ha
029_0203 mekgwa e mmedi ya sehlooho
029_0205 new zealand english
029_0206 ka mokgwa wa elektroniki kapa
029_0207 johanesburg
029_0209 tshebeletso ya kgaso ya motse
029_0210 ya dipuo tse ngata di
029_0211 tshebediso ya mamello ya mohato
029_0212 se ke wa qobella molemi
029_0214 le thabo e tlang le
029_0216 dubious date march
029_0217 mathata afe kapa afe a
029_0220 setjhaba tshebetsong ya ntshetsopele ya
029_0221 dipehelo le maemo a tshebediso
029_0222 ileng tsa fuwa maemo a
029_0223 anc
029_0225 la foromo ya hao ya
029_0226 phethahatso ya leano la puo
029_0227 original
029_0228 post world war
029_0229 ba tikoloho e itseng kapa
029_0231 rational choice theory
029_0233 tiiseditsweng tsa mangolo a hao
029_0235 mdda
029_0236 worth
029_0237 lekola tswelopele ya mosebetsi wa
029_0238 foreign direct investment
029_0239 arthur conan doyle
029_0240 jwalo ka katoloso ya bongata
029_0242 monyetla wa ho ba le
029_0244 red hot chili
029_0245 na le boikarabelo ba ho
029_0246 selborne
029_0247 ralph waldo emerson
029_0249 ditaba tsena di nkilwe bukaneng
029_0250 reng taolo e ka nna
029_0251 ntlo ya seboka ya palamente
029_0252 la ditshebeletso le sesiu sa
029_0253 setshelo sa witblits se neng
029_0254 na le ditho tsa palamente
029_0255 mofuta ofe kapa ofe wa
029_0256 mme re ke ke ra
029_0257 o tla romelwa seteisheneng sa
029_0259 ka ho fetisisa taolong ya
029_0260 operation desert storm
029_0261 balemi ba afrika borwa ba
029_0263 ke letona ka kgothaletso ya
029_0264 botlalo di tla kgutlisetswa ho
029_0265 lefapha le molaong ka tsela
029_0266 molao wa motheo o hatella
029_0267 ho teng balemi ba batsho
029_0268 hamburg
029_0269 tswa dinaheng tsohle tseo mokopi
029_0270 lokelwa ho romelwa dikgweding tse
029_0271 british overseas territories
029_0272 ya ho kganna ya borutehi
029_0273 ho bala le ho ngola
029_0274 ho adima tjhelete mabapi le
029_0275 communications commission fcc
029_0276 ba le tokelo ya boqapi
029_0278 e bonahala ka popeho ya
029_0279 komiting ya ditshebeletso tsa bohlokwa
029_0280 moetapele wa mosebetsi wa mmuso
029_0281 states environmental protection
029_0283 ho emela tsohle tse mpe
029_0284 second continental congress
029_0289 sa ho di tshireletsa ha
029_0290 mme ho kenwe ho lona
029_0291 dikarolong tse fapaneng tsa naha
029_0293 ka sepheo sa ho thibela
029_0294 total land area
029_0298 e nngwe ya dipuo tsa
029_0299 re sebetsa mmoho re tlameha
029_0300 e leng independent complaints directorate
029_0302 lefang tonobankeng ho sebaka kapa
029_0303 ha motho a ntse a
029_0304 golden gate bridge
029_0306 ralph waldo emerson
029_0308 a tsona e tla ba
029_0311 middle east peace
029_0313 getrude
029_0314 buang le maemo ao e
029_0315 ba bona ba afrika borwa
029_0316 eastern roman empire
029_0317 etswa ka puo ya kgetho
029_0318 ya ka academy of science
029_0319 cambridge university press
029_0320 karolo ya tshebetso ya ho
029_0321 pherekgong
029_0323 hlahisa dithuto tse tharo tsa
029_0324 o etsa kopo lebitsong la
029_0325 needed date august
029_0326 ke hore ho phetholwa ha
029_0327 a hlokahetse kapa a latotse
029_0328 association football clubs
029_0329 o dumela hore dipuo tsa
029_0330 reform
029_0331 national inventors hall
029_0332 bona ba naha ya afrika
029_0334 tse hlaselang semela sa soneblomo
029_0335 guru granth sahib
029_0336 bo ikgethang ba mosebetsi kapa
029_0337 ke tokomane ya semmuso e
029_0338 id tsa mmala o motsho
029_0340 interim prime minister
029_0341 ya mokgatlo wa tshireletso ya
029_0347 ke mang ya jarang boikarabelo
029_0348 united states department
029_0349 distinguished service medal
029_0350 behilweng bakeng sa tshebeletso ena
029_0351 ba ntseng ba thuthuha ba
029_0352 international financial institutions
029_0353 ya koro mabapi le balemi
029_0354 juvenal
029_0355 moqebelo
029_0356 mongodisi wa ditokelo tsa bamedisi
029_0358 jwalo ka karolo ya tshebetso
029_0359 jwalo a feletswe ke nako
029_0360 vanity
029_0362 common law jurisdictions
029_0363 ya bodulo ba saruri ho
029_0364 ho laola palo ya dimela
029_0365 le diphetoho dife kapa dife
029_0366 yona tlasa pehelo ya hore
029_0367 american film institute
029_0368 leng le le leng le
029_0369 pongola
029_0370 devan gar
029_0371 second balkan war
029_0372 di etswang teng ka poso
029_0373 e leng se bolelang hore
029_0374 kapa e rekiswang mona afrika
029_0375 ho fanwang ka yona ke
029_0376 morojele
029_0377 e ngotsweng ke marius greyling
029_0379 ho tla etsahala eng ha
029_0380 o ngodiswe rejistareng ya baahi
029_0381 vicksburg
029_0382 ba motswadi wa letholwa ka
029_0384 a phela nako e telele
029_0385 armenian apostolic church
029_0386 boulevard
029_0387 lefapha la bokgabo le botjhaba
029_0388 tsa bona le basebeletsi ba
029_0389 coronary artery disease
029_0391 e telele di kgona ho
029_0392 ho bohlokwa haholo hore o
029_0393 la ntshetsopele ya molemi wa
029_0395 million years old
029_0397 puso ya selehae le phano
029_0398 dikarolong tse ka hodimo tsa
029_0399 o kgothalletsa ka matla tshebediso
029_0400 sir francis drake
029_0401 american quarter horse
029_0402 countries established diplomatic
029_0403 a ditsebiso tse matsohong a
029_0405 pedi tsa id tsa mmala
029_0406 health
029_0408 british television series
029_0409 battery park city
029_0410 electron degeneracy pressure
029_0411 tswa lefapheng la ditaba tsa
029_0412 haholo tlhodisanong e neng e
029_0413 free software movement
029_0414 michael
029_0415 ba diyuniti tsa r le
029_0417 romelwa ofising efe kapa efe
029_0418 phethahatso ya leano e tla
029_0420 tlatsitsweng tse lenaneong le ka
029_0422 mehlodi e meng ya thuso
029_0423 tse mmalwa ho tloha jwale
029_0424 nehela lefapha kopi e tiiseditsweng
029_0425 o bohlokwa ka ho fetisisa
029_0431 best adapted screenplay
029_0432 ha ona nakong ya selemo
029_0433 nuclear chain reaction
029_0434 golden gate bridge
029_0438 nobel peace prize
029_0439 ofisi ya mosireletsi wa setjhaba
029_0441 pele peo e hlaha mobung
029_0443 natal
029_0444 lekgotla la dinyewe le tla
029_0445 nobel peace prize
029_0446 mehlodi e meng ya tjhelete
029_0447 e tshehla ha o tsamaya
029_0448 motho e mong ntle le
029_0451 dipuo tsohle tsa semmuso di
029_0455 ditaba tsa lehae kapa embasing
029_0457 asian nations asean
029_0459 motho ya tjhonneng ha a
029_0461 e neng e tshwaretswe the
029_0464 mohope wa lefatshe wa bolo
029_0465 e mele ke tshenyo e
029_0466 molao wa ngodiso ya tswalo
029_0467 roman catholic church
029_0469 mabapi le bophelo bo botle
029_0470 pusat statistik provisionally
029_0472 green coffee beans
029_0473 e le balemi ba thuthuhang
029_0474 san diego chargers
029_0477 tla neng lekgotleng la dinyewe
029_0478 ho bile le tshehetso e
029_0479 mayflower
029_0480 strategic air command
029_0481 wa ho etsa dintho ka
029_0484 mehato ya taolo ka dikhemikhale
029_0485 tsa thuto e phahameng le
029_0486 ho teteana ha mobu le
029_0488 seo feberu e tshehla e
029_0489 ho balemi ba ntseng ba
029_0491 united states naval
029_0493 di ka phethahatswa le ha
029_0494 ka hara ntlo ya seboka
029_0495 ka ho fetisisa e leng
029_0496 kapa setho sa lekgotla la
029_0498 tsa tikoloho le bohahlaudi kapa
029_0499 ka dikhemikhale e na le
029_0500 puo ka ho hlahisa dipheo
029_0501 bo botle jwalo ka ha
029_0503 moo ho kgonehang ka teng
029_0504 ngodiswa ka ho ya ka
029_0505 mahola a mariha a selemo
029_0506 teng balemi ba bangata ba
029_0508 dar es salaam
029_0509 nigel
029_0510 kapa dintho tse ding tse
029_0511 eastern orthodox church
029_0513 tswang mafapheng a fapaneng a
029_0514 sa ho tshohlwa ka palamenteng
029_0515 functional programming languages
029_0517 articles containing proofs
029_0518 royal albert hall
029_0519 kapa ofe e mong ya
029_0521 le tse ding tse tharo
029_0522 microwave background radiation
029_0523 second continental congress
029_0524 le ditaba tse amanang le
029_0525 tsa mohope wa lefatshe wa
029_0526 graphical user interface
029_0527 o ka nna wa etsa
029_0528 hore tshebeletso ya sepolesa sa
029_0530 kopo ya taelo ya semmuso
029_0531 agriculture organization fao
029_0532 menyetla ya thuso ya ditjhelete
029_0533 kutlwanong
029_0535 mosebetsi o leng ho wona
029_0536 leano le ditaelo tse sebediswang
029_0537 population
029_0538 zeerust
029_0539 ho lefa lekgetho la nakwana
029_0540 amino acid residues
029_0541 setifikeiti se kgutsufaditsweng sa lenyalo
029_0542 united states supreme
030_0003 make extensive use
030_0010 gcis e ka fana ka
030_0011 western united states
030_0014 army occupied cypriot
030_0015 tlhekelo ka letona la bonono
030_0018 fane ka nomoro ya akhauntu
030_0022 national baseball hall
030_0025 dubious date april
030_0027 game boy advance
030_0029 united nations high
030_0030 positive real numbers
030_0034 ena ke e nngwe ya
030_0036 south
030_0039 e ne e le sebaka
030_0040 garrick
030_0042 tsa diporofensi di a nahanwa
030_0045 le hore re kgone ho
030_0046 tlameha ho ba karolo ya
030_0047 hubble space telescope
030_0050 ho thehwa ha diyuniti tsa
030_0051 new york jets
030_0053 western european countries
030_0057 itseng ntle le ho ama
030_0058 western united states
030_0059 european union member
030_0060 ka potlako ka ho ya
030_0070 american television actors
030_0071 di ka qojwang ka teng
030_0072 romela ka mora nako ditlaleho
030_0079 petroleum exporting countries
030_0082 tone ka nngwe ho tsamaisa
030_0084 sound
030_0085 khampani kapa khampani ya ba
030_0087 samuel's
030_0088 moo se sa tshwanelang se
030_0089 latelang di tla kotjwa bakeng
030_0090 states unemployment rate
030_0101 seetebosigo
030_0104 united states began
030_0105 cognitive behavioral therapy
030_0108 box office success
030_0110 united states air
030_0112 fact date january
030_0114 british foreign secretary
030_0115 ho beha leihlo tshebediso ya
030_0117 states district court
030_0121 boston red sox
030_0125 south sandwich islands
030_0128 american political writers
030_0134 nobel prize winners
030_0136 ba ratang naha ya habo
030_0139 reef
030_0141 billy
030_0143 asian financial crisis
030_0158 ho qetela la ho sebetsa
030_0166 roman catholic archbishops
030_0168 e ise embasing kapa misheneng
030_0169 diporofensi di a nahanwa boemong
030_0170 leo mobu o leng ho
030_0171 ya tse romellwang ka ntle
030_0175 high middle ages
030_0177 roodepoort
030_0178 phahameng ya poone le mmaraka
030_0179 california state university
030_0180 ya south african revenue service
030_0181 hloleha ho etsa jwalo ho
030_0183 german air force
030_0184 bang ba tlosa pompo pele
030_0185 mananeo a mmuso a ho
030_0190 eo ho dumellanweng ka yona
030_0195 valence bond theory
030_0196 grisly
030_0199 mokga oo a etsang kopo
030_0201 animated television series
030_0203 ho ba le seabo lenaneong
030_0204 ho ngodisa jwalo ka setsebi
030_0207 ke notary public kapa mokhomishenara
030_0209 security assistance force
030_0210 kopo ya bodulo ba saruri
030_0213 professional american football
030_0215 early morning hours
030_0216 kapa badudi ba saruri ba
030_0217 marcel
030_0220 e netefaditsweng ya bukana ya
030_0223 kopo ya phemiti ya phapanyetsano
030_0225 dennilton
030_0234 wa ho qala wa leloko
030_0235 music awards winners
030_0239 billion years ago
030_0242 national public radio
030_0243 le kgahleho bophelong ba motletlebi
030_0244 ya ngodiso e sa kgutlisweng
030_0246 functional programming languages
030_0249 tla ba le seabo se
030_0252 comic book series
030_0257 nebula award winning
030_0260 sa moralo wa puo ho
030_0271 petroleum exporting countries
030_0275 europe music
030_0279 ho ya ka palohare ya
030_0281 batlang ho fumana boahi ba
030_0287 pope benedict
030_0292 dikgeong tsa mesebetsi ya sehlopha
030_0293 merafong le temong bakeng sa
030_0294 tlhahisoleseding e fumanwe bukaneng ya
030_0295 ntlafatsa polokeho le tshireletso ya
030_0298 kapa o tshwerwe tlasa mental
030_0302 northern mariana islands
030_0303 le tumello e ngotsweng fatshe
030_0306 united states declaration
030_0312 lejwe
030_0314 ka rakonteraka o na le
030_0318 of access to information act
030_0320 palestinian national authority
030_0324 american musical theatre
030_0333 united states district
030_0336 atlantic treaty organization
030_0340 ka hara naha ya afrika
030_0341 motherwell
030_0343 hong kong island
030_0347 ditlhaloso tsa lengolo la truste
030_0348 boyce
030_0349 average life expectancy
030_0350 austrian school economists
030_0352 monetary fund imf
030_0353 ya hao ya boitsebiso kapa
030_0356 northern
030_0357 larry
030_0359 nna a fetoha sebaka moo
030_0361 tshwaneleha le moruo wa tshebetso
030_0362 ba badudi ba saruri ba
030_0368 king james version
030_0372 inshorense ya tse sebediswang mobung
030_0373 o nka kilograma e le
030_0374 morao ka dilemo tse ngata
030_0376 sexually transmitted diseases
030_0378 bethal
030_0379 dilemong tse mmalwa tse fetileng
030_0381 religious
030_0385 pimville
030_0390 republican party united
030_0392 war political
030_0395 khopi ya rasiti e saennweng
030_0397 di fetwa ka bohlwahlwa ke
030_0398 imperial japanese navy
030_0400 video game developers
030_0403 transvala
030_0404 le mekgwa e meng ya
030_0407 persian gulf states
030_0412 knights grand cross
030_0414 liberal arts college
030_0415 black sea coast
030_0416 rapid economic growth
030_0417 borwa di tlameha ho ngodiswa
030_0424 kansas city royals
030_0430 state university alumni
030_0431 melbourne football club
030_0442 eldorado
030_0447 clarify date february
030_0449 lokela ho phatlalatsa ditokomane hanghang
030_0450 ludwig von mises
030_0452 president harry
030_0453 episcopal church usa
030_0458 tsamaiso ya mawatle le mabopo
030_0461 notable examples include
030_0465 catherine
030_0490 clarify date march
030_0495 winter olympic games
030_0496 hang ka selemo ka mora
030_0497 american musical theatre
030_0498 mong le e mong ya
030_0500 e batlang e le ntle
030_0501 clarify date november
030_0504 ya hao setatementeng sa banka
030_0505 sera
030_0508 john von neumann
030_0510 essential fatty acids
031_0003 mahola e tshwanetse ho etswa
031_0006 fact date august
031_0012 rala mme o romele ditokomene
031_0017 complaints
031_0018 supreme court ruled
031_0022 junior high school
031_0027 ho behela taelo ka thoko
031_0032 great lakes region
031_0036 hartbeespoort
031_0037 e nang le share capital
031_0040 nfc championship game
031_0041 french west africa
031_0046 foreign direct investment
031_0047 magnetic resonance imaging
031_0059 org wiki wikipedia
031_0063 maseru
031_0064 army air corps
031_0073 metsimaholo
031_0074 american male singers
031_0075 tsosoloso ya boemo ba theshiari
031_0081 american psychiatric association
031_0082 palestine liberation organization
031_0085 royal albert hall
031_0088 se kgethollwe ho ya ka
031_0089 o neng o rena ditherisanong
031_0090 best supporting actor
031_0092 ha eba kere e potolohisang
031_0096 protea
031_0098 electron transport chain
031_0105 bona ba na le tokelo
031_0110 monroe
031_0111 o ne a atisa ho
031_0114 united states
031_0117 armoured fighting vehicles
031_0120 bridgeport
031_0123 tlwaelo e ke ke ya
031_0129 central
031_0131 bilateral immunity agreement
031_0132 ka morero wa ho matlafatsa
031_0134 average family size
031_0135 empire
031_0138 president george
031_0140 le ho romela ditokomane ho
031_0144 randfontein
031_0145 military coup
031_0146 july
031_0147 ho suthisa ka ho ya
031_0151 united states army
031_0155 tsa larvae hammoho le mahe
031_0156 di tswela pele ho sa
031_0162 system
031_0163 african
031_0165 sam
031_0174 international atomic energy
031_0178 modern orthodox judaism
031_0181 ke ema ka pela lona
031_0190 nelson mandela le thabo mbeki
031_0192 citation needed april
031_0198 strategic air command
031_0200 cathode ray tube
031_0201 grammatical
031_0206 bad
031_0211 ke ke wa kgona ho
031_0212 tlasa merero e hlwauweng mona
031_0221 bragg
031_0223 mmalwa le traste ditho tsohle
031_0224 bill
031_0235 recreation
031_0236 supreme allied commander
031_0239 best foreign language
031_0240 internet protocol suite
031_0242 tailor
031_0243 randburg
031_0248 lokile pele o etsa kopo
031_0250 ho ntsha raporoto ya radiology
031_0254 efe kapa efe eo ho
031_0257 midrand
031_0260 october
031_0261 motor vehicle manufacturers
031_0264 ha re sebetsa mmoho re
031_0265 ho etsa hore naha ya
031_0266 common law jurisdictions
031_0267 mahareng a phato ho fihlela
031_0269 tlamehile maoto le matsoho ho
031_0273 saint john river
031_0277 church turing thesis
031_0279 ha eba o hloleha ho
031_0281 early church fathers
031_0286 mang ya ikemiseditseng ho nehelana
031_0288 leng se bolelang hore ho
031_0292 ka ntle ya batlang ho
031_0293 mme re tshepa hore moya
031_0295 strong nuclear force
031_0300 bafta winners people
031_0302 durban
031_0306 potter's
031_0307 court ha e le traste
031_0310 power parity comparisons
031_0312 la ditaba tsa lehae hore
031_0313 centrally planned economy
031_0317 north germanic languages
031_0320 articles including recorded
031_0321 tse felletseng tsa moo ho
031_0323 free methodist church
031_0329 van der waals
031_0336 nako e telele ho tiisitse
031_0340 valhalla
031_0343 dutch east india
031_0344 la provinse kapa la naha
031_0349 convention
031_0355 ile ba hapa moputso wa
031_0363 golden globe winners
031_0364 moahi wa naha ya afrika
031_0371 le hore re tle re
031_0373 rona bo tataiswe haholo ke
031_0375 award winning authors
031_0378 ya thuso bakeng sa ho
031_0380 proffesor
031_0387 russian civil war
031_0389 federal trade commission
031_0395 tlhokeho ya mosebetsi wa ho
031_0396 le hore se sebetsa jwang
031_0402 maano a tsona ho latela
031_0404 national hockey league
031_0406 dingane
031_0410 saense ya tlhaho dikri diploma
031_0412 fact date march
031_0413 tse ding le tse ding
031_0417 chancellorsville
031_0420 screen actors guild
031_0421 united states geological
031_0429 gibbon
031_0434 lekgotleng la dinyewe ho tla
031_0441 holy hand grenade
031_0444 united states senate
031_0445 numeric character references
031_0449 moscow state university
031_0450 tikoloho
031_0451 senqu
031_0453 o okina ahu
031_0456 tlhokomelo mabapi le tshebediso e
031_0457 high seas fleet
031_0458 re tsebang ho sebetsa re
031_0459 buddhism
031_0460 roman catholic priests
031_0462 miller's
031_0463 nuclear test ban
031_0465 law enforcement agencies
031_0471 man
031_0479 madison square garden
031_0486 american jewish people
031_0488 leqephe la pele la foromo
031_0489 television shows set
031_0494 environmental protection agency
031_0495 e tswang ho registrar of
031_0497 primitive recursive functions
031_0498 congressional gold medal
031_0499 national baseball hall
031_0503 liberal arts college
031_0507 sebediswang wa ho phethola mobu
031_0508 united states district
031_0510 mahola ke sera sa pele
031_0518 thibelang lefu ka mora ketsahalo
031_0522 ho beha leihlo tshebediso ya
032_0001 tsa lehae provinseng eo o
032_0003 weposaeteng ya lefapha la temo
032_0005 professional american football
032_0007 functional programming languages
032_0008 ka mokgwa o hlwahlwa ho
032_0009 leondale
032_0011 nobel prize winners
032_0012 kopanelo ya boitshwaro bo botle
032_0013 o nka kilograma e le
032_0014 dennilton
032_0016 american science fiction
032_0017 ho ntlafatsa boleng ba bophelo
032_0020 batshwaruwa
032_0022 tlhekelo
032_0026 united states dollar
032_0030 ho kganna ya borutehi bo
032_0034 ho fana ka beile le
032_0036 south sandwich islands
032_0037 united states government
032_0038 motheo
032_0039 kgannelang tlhaselong e eketsehang ya
032_0040 ya ho ba teng ho
032_0042 a hlahisa dikgwebo tsa tsona
032_0045 reef
032_0047 ha o a dumellwa ho
032_0048 ho beha leihlo tshebediso ya
032_0051 valence bond theory
032_0052 security assistance force
032_0053 clarify date february
032_0054 northern mariana islands
032_0055 le nngwe feela afrika borwa
032_0059 mabapi le maemo a setjhaba
032_0063 random access memory
032_0066 london
032_0068 ludwig von mises
032_0071 ya south african revenue service
032_0079 united states began
032_0080 president harry
032_0081 mabapi le tshireletso ya dijo
032_0082 ke molao wa motheo ho
032_0084 le ho haha setjhaba sa
032_0089 national public radio
032_0099 nebula award winning
032_0100 ya tlhaselo e eso fihle
032_0101 imperial japanese navy
032_0103 test ban treaty
032_0105 petroleum exporting countries
032_0108 clarify date march
032_0110 music awards winners
032_0111 frank lloyd wright
032_0115 austrian school economists
032_0116 cognitive behavioral therapy
032_0120 phahameng ya poone le mmaraka
032_0121 islamic conference oic
032_0124 inshorense ya tse sebediswang mobung
032_0125 dubious date april
032_0126 ho qetela la ho sebetsa
032_0130 islamic conference oic
032_0134 e poraefete ya ho fihlella
032_0135 western united states
032_0136 state university alumni
032_0140 ka hara lekgotla la naha
032_0141 ya makgulo bakeng sa kgwebo
032_0142 grisly
032_0145 comic book series
032_0146 atlantic
032_0148 ya tse romellwang ka ntle
032_0149 nang le tokelo ya ho
032_0153 ya boitsebiso kapa setifikeiti sa
032_0155 rapid economic growth
032_0156 united nations high
032_0159 seetebosigo
032_0163 ya naha e tshwereng motho
032_0166 ho sebedisa lebitso le molaong
032_0167 dilemong tse mmalwa tse fetileng
032_0168 mananeo a mmuso a ho
032_0171 united states air
032_0176 palestinian national authority
032_0182 asian financial crisis
032_0183 boyce
032_0185 ntle mofuta wa hlapi o
032_0186 african unity oau
032_0189 thibelang lefu ka mora ketsahalo
032_0190 a sa siya wili e
032_0192 larry
032_0193 haufi tsa ntshetsopele ya setjhaba
032_0195 phetoho efe kapa efe e
032_0196 south
032_0198 e ise embasing kapa misheneng
032_0201 video game developers
032_0202 knights grand cross
032_0204 khopi e netefaditsweng ya bukana
032_0206 dipalopalo
032_0211 fane ka nomoro ya akhauntu
032_0212 transvala
032_0213 animated television series
032_0214 grand
032_0215 wa setjhaba lawrence mushwana o
032_0217 leo mobu o leng ho
032_0218 baemedi ba porofensi ho ncop
032_0220 open source initiative
032_0221 billy
032_0223 ditlhaloso tsa lengolo la truste
032_0225 ho itsebisa jwalo ka ntate
032_0226 american television actors
032_0227 hlalositsweng bakeng sa ditjhelete tse
032_0230 notable examples include
032_0232 ba thupelo ba lokela ho
032_0233 itseng ntle le ho ama
032_0234 close air support
032_0239 hlahisa ditabatabelo le mehopolo ya
032_0242 pakeng tsa batho ba babedi
032_0243 high middle ages
032_0246 ya ngodiso e sa kgutlisweng
032_0251 european union member
032_0253 tsa diporofensi di a nahanwa
032_0254 boston red sox
032_0256 motherwell
032_0257 roman catholic archbishops
032_0258 california state university
032_0259 boafrika borwa ba rona bo
032_0263 fact date july
032_0265 kansas city royals
032_0266 episcopal church usa
032_0275 polasi le nang le boleng
032_0276 ho feta ka moo ho
032_0279 persian gulf states
032_0280 ho ngodisa jwalo ka setsebi
032_0281 mokopi le mohatsa hae ba
032_0282 catherine
032_0283 europe music
032_0286 hubble space telescope
032_0289 american nobel laureates
032_0290 liberal arts college
032_0292 bethal
032_0293 kenya tshebetsong mokgwa wa ho
032_0296 ho bonahala eka ha ho
032_0297 kopo e tlameha ho felehetswa
032_0299 diporofensi di a nahanwa boemong
032_0305 american political writers
032_0308 early morning hours
032_0319 francisco bay area
032_0322 tlameha ho felehetsa kopo ka
032_0323 jwalo ka ha ho bontshitswe
032_0325 pope benedict
032_0326 mme ho tla ya ka
032_0328 sexually transmitted diseases
032_0329 setsheng sa bafu sa poraefete
032_0330 pimville
032_0331 tlhakiso ya mahlale a puo
032_0332 extension
032_0333 international astronomical union
032_0334 garrick
032_0335 petroleum exporting countries
032_0337 station
032_0338 tshebetso tsa lekgetho la kuno
032_0339 republican party united
032_0340 hong kong island
032_0341 new york jets
032_0342 union member states
032_0343 aung san suu
032_0345 royal dutch shell
032_0346 eo ho dumellanweng ka yona
032_0350 british foreign secretary
032_0352 le kgahleho bophelong ba motletlebi
032_0353 western european countries
032_0356 major professional sports
032_0357 black sea coast
032_0358 army occupied cypriot
032_0359 e na le dimojule tse
032_0362 of access to information act
032_0363 fact date january
032_0366 leng hore ha ho hlokehe
032_0375 united states district
032_0376 ho thehwa ha diyuniti tsa
032_0379 tse ntjha tsa ho banka
032_0385 dikgeong tsa mesebetsi ya sehlopha
032_0387 le haebe ho boletswe ka
032_0389 united states navy
032_0391 northern
032_0393 samuel's
032_0395 ba hore khopi ya foromo
032_0397 toka
032_0398 boholo ba nako e etsang
032_0399 park
032_0401 fihlwang ho yona ya mohlahisi
032_0408 sebokeng sa naha bakeng sa
032_0414 united states declaration
032_0417 borwa di tlameha ho ngodiswa
032_0418 memphis
032_0419 ke wa qobella molemi ho
032_0420 tlosa pompo pele ba ilo
032_0421 le katleho ya sepheo sa
032_0426 osama bin laden
032_0429 malwetse a pustule a bakwang
032_0432 meade
032_0433 ofisi ya iss ya afrika
032_0434 states district court
032_0435 hloleha ho etsa jwalo ho
032_0437 american musical theatre
032_0438 war political
032_0439 science fiction hall
032_0440 positive real numbers
032_0442 tse haufi tsa ntshetsopele ya
032_0445 dikgopo tsa mahlaku hloohong ya
032_0450 religious
032_0451 ancient near east
032_0453 ditletlebo
032_0454 ke boikarabelo ba moahi e
032_0455 american free trade
032_0456 american voice actors
032_0462 moralo wa tshebetso wa naha
032_0463 billion years ago
032_0466 e tshwanetse ho phethwa ka
032_0468 ho ngodisa setsi sa tlhahlobo
032_0469 tse ikgethileng tsa kgatello di
032_0475 afrika borwa jwalo ka ha
032_0476 management
032_0477 aterese le nomoro ya mohala
032_0478 king james version
032_0483 tsa fuwa maemo a tlase
032_0486 american sign language
032_0488 batlang ho fumana boahi ba
032_0489 ya tlhahisoleseding tshebetsong ya toka
032_0491 ho tshela oli e ntjha
032_0492 ice hockey team
032_0493 ho ngodisa khampani e poraefete
032_0494 general public license
032_0500 american musical theatre
032_0502 ya hao setatementeng sa banka
032_0507 n g rjuna
032_0511 winter olympic games
032_0514 ya nang le phemiti ya
032_0515 real gdp growth
032_0516 clarify date november
033_0002 positive real numbers
033_0004 imperial japanese navy
033_0006 dennilton
033_0008 western united states
033_0016 ya tswelang pele ka mosebetsi
033_0020 chinese communist party
033_0022 make extensive use
033_0024 tlameha ho balwa ka botebo
033_0026 motherwell
033_0029 o loketseng tlhahiso ya dijothollo
033_0031 transvala
033_0034 box office success
033_0035 winter olympic games
033_0037 internal combustion engine
033_0038 leano le ona o hlokometse
033_0040 bethal
033_0044 ditlhaloso tsa lengolo la truste
033_0045 petroleum exporting countries
033_0047 ludwig von mises
033_0050 diporofensi di a nahanwa boemong
033_0051 wa diphoofolo kapa bolaodi bo
033_0053 california state university
033_0056 functional programming languages
033_0057 billion years ago
033_0064 bontshang kamano pakeng tsa theko
033_0067 treaty organization nato
033_0070 of access to information act
033_0072 ke notary public kapa mokhomishenara
033_0075 ya makgulo bakeng sa kgwebo
033_0076 o lokela ho etsa kopo
033_0079 professional american football
033_0080 united states began
033_0087 tiisitse hore ha ho hlwahlwa
033_0092 human rights record
033_0093 guano islands act
033_0097 international astronomical union
033_0099 ho feta ka moo ho
033_0101 bahwebi ba sa sebedise tlwaelo
033_0102 essential fatty acids
033_0103 borwa di tlameha ho ngodiswa
033_0104 aung san suu
033_0106 american television actors
033_0109 lokela ho tlatswa ke bajalefa
033_0111 le haebe ho boletswe ka
033_0112 george
033_0113 old garden roses
033_0115 mabapi le puo tsa lefapha
033_0117 memphis
033_0118 toka
033_0121 chinese civil war
033_0124 missing living people
033_0128 le kgahleho bophelong ba motletlebi
033_0129 islamic conference oic
033_0133 le ona o hlokometse hore
033_0136 knights grand cross
033_0142 notable examples include
033_0144 states district court
033_0145 american musical theatre
033_0146 average life expectancy
033_0151 ka puo la afrika borwa
033_0153 fane ka nomoro ya akhauntu
033_0156 wayne state university
033_0159 hauhelele
033_0163 pope benedict
033_0165 marcel
033_0166 ho fafatsa kgahlanong le mahola
033_0167 tlhahisoleseding e fumanwe bukaneng ya
033_0169 close air support
033_0170 eo ho dumellanweng ka yona
033_0171 ha ho ne ho ena
033_0173 catherine
033_0174 sera
033_0175 american free trade
033_0176 sound
033_0180 sefe sa tlhahlobo ya laesense
033_0181 clarify date november
033_0183 tshenyo e kgolo dimeleng tse
033_0184 wa ho qala wa leloko
033_0186 na le tshepo ya hore
033_0187 kapa o tshwerwe tlasa mental
033_0189 kansas city royals
033_0193 di fapana ho ya ka
033_0194 tlameha ho tlatswa ke mokopi
033_0195 dintlha dife kapa dife tse
033_0196 mokopi le mohatsa hae ba
033_0197 new york jets
033_0198 seteisheneng sa mapolesa se haufi
033_0199 kopanelo ya boitshwaro bo botle
033_0202 dikgeong tsa mesebetsi ya sehlopha
033_0205 atlantic treaty organization
033_0207 day saint movement
033_0212 baemedi ba porofensi ho ncop
033_0213 ke boikarabelo ba moahi e
033_0214 national public radio
033_0215 boramesebetsi ba lokela ho saena
033_0217 security assistance force
033_0218 europe music
033_0219 boyce
033_0220 civil class
033_0221 british west indies
033_0222 video game developers
033_0224 republican party united
033_0225 tsamaiso ya mawatle le mabopo
033_0227 rapid economic growth
033_0228 social democratic party
033_0229 o nka kilograma e le
033_0230 ke mohlodi wa bohlokwa wa
033_0231 kopo ya phemiti ya phapanyetsano
033_0233 ho ngodisa khampani e poraefete
033_0237 guru granth sahib
033_0238 institjhute
033_0239 phasepoto ya hao ya afrika
033_0240 yona ha feela le tla
033_0241 melbourne football club
033_0243 british foreign secretary
033_0244 ho hloleha ho etsa jwalo
033_0245 ya ba mmalwa e ngodisitsweng
033_0248 new testament canon
033_0250 tlameha ho felehetsa kopo ka
033_0251 ho itsebisa jwalo ka ntate
033_0252 management
033_0253 ford motor company
033_0255 metsi a mangata hoo tse
033_0256 american voice actors
033_0257 kopo ya ho ngodisa khampani
033_0259 tlosa pompo pele ba ilo
033_0260 e leng commission for conciliation
033_0262 ke wa qobella molemi ho
033_0264 grisly
033_0265 asian financial crisis
033_0266 o le moahi wa afrika
033_0268 mme ho tla ya ka
033_0269 dipalopalo
033_0270 meade
033_0272 ka moo ho ka kgonehang
033_0274 mtv video music
033_0275 tswa dinaheng tsa ka ntle
033_0278 cognitive behavioral therapy
033_0279 hard disk drive
033_0280 ka tsela efe kapa efe
033_0281 ka kamano ya ho se
033_0282 ya tjhelete le meralo ya
033_0285 eldorado
033_0288 sehla se hlahlamang sa ho
033_0289 batlang ho fumana boahi ba
033_0291 etsa hore a kgone ho
033_0292 ka mehla bala leibole ya
033_0293 ya afrika borwa ba dilemo
033_0294 romela ka mora nako ditlaleho
033_0295 leondale
033_0296 e tshwanetse ho phethwa ka
033_0298 ludwig von mises
033_0299 jwalo ka ha ho bontshitswe
033_0300 united states navy
033_0304 john von neumann
033_0305 boston red sox
033_0306 american musical theatre
033_0307 di ka romelwa ofising efe
033_0310 northern
033_0311 park
033_0312 moo o ile wa sebediswa
033_0313 mokgwa o sa tlwaelehang re
033_0314 tsa diporofensi di a nahanwa
033_0315 sa moralo wa puo ho
033_0316 mokga oo a etsang kopo
033_0318 ho ya ka dipehelo tsa
033_0319 ho thola ngwana ka molao
033_0320 osama bin laden
033_0323 nobel prize winners
033_0325 western european countries
033_0326 major professional sports
033_0328 ho ntlafatsa boleng ba bophelo
033_0329 masimo a mang le a
033_0331 pele ho ka jalwa sejothollo
033_0333 kansas state university
033_0335 persian gulf states
033_0337 theko ya oli e tala
033_0338 tone ka nngwe ho tsamaisa
033_0339 ho mokga o laolang wa
033_0340 united arab emirates
033_0342 north west company
033_0343 united states federal
033_0344 arizona state university
033_0346 states unemployment rate
033_0347 botle le ditabatabelo tsa ditho
033_0348 dubious date april
033_0349 mong le e mong ya
033_0350 hloka bokgoni ba ho nehelana
033_0354 itseng ntle le ho ama
033_0355 hore ditho tsa palamente di
033_0356 ya foromo ena e fuwe
033_0357 francisco bay area
033_0358 balemi ba ntseng ba thuthuha
033_0359 lefatshe la polasi le nang
033_0361 ofe kapa ofe wa mmuso
033_0362 ho kenyelletswa le ditaba tse
033_0363 thuto ya kalafo ya tsa
033_0364 music awards winners
033_0365 american short story
033_0366 rona ba ho lwantsha botlokotsebe
033_0367 early morning hours
033_0368 dilemong tse mmalwa tse fetileng
033_0369 botoloki ka mohala tsa afrika
033_0370 hlalositsweng bakeng sa ditjhelete tse
033_0371 nna tsa ama malwetse a
033_0373 tlhakiso ya mahlale a puo
033_0374 ya south african revenue service
033_0375 ba lenaneo la ntshetsopele ya
033_0376 le hore ho tle ho
033_0377 ka mokgwa ofe kapa ofe
033_0379 frank lloyd wright
033_0380 ka mokgwa o hlwahlwa ho
033_0381 ya tlhaselo e eso fihle
033_0382 lengolo la bopaki la phytosanitary
033_0383 a se ke a kena
033_0384 united states dollar
033_0385 naha ya habo rona e
033_0386 ho balwa ka botebo le
033_0388 keketseho ya boleng ba masimo
033_0390 los angeles county
033_0391 le nngwe feela afrika borwa
033_0392 austrian school economists
033_0393 international criminal court
033_0394 ba dilemo tse ka hodimo
033_0397 extension
033_0399 mekgatlo e adimanang ka tjhelete
033_0400 european union member
033_0401 borwa a ka ba teng
033_0402 ho fana ka beile le
033_0403 n g rjuna
033_0404 mafelong a kgwedi e nngwe
033_0405 sa ntsaneng a le manyane
033_0406 royal dutch shell
033_0407 ena ka sepheo sa ho
033_0408 la nakwana le lokelwang ho
033_0409 ho kganna ya borutehi bo
033_0410 jwaloka ha o fetisitswe le
033_0411 atlantic slave trade
033_0412 ka hara naha ya afrika
033_0413 le tumello e ngotsweng fatshe
033_0414 moahi wa afrika borwa kapa
033_0415 ho ba motswadi wa letholwa
033_0416 morao ka dilemo tse ngata
033_0417 phemiti ya ditswantle ya bongaka
033_0420 ka mora nako e itseng
033_0423 tsa palamente di tlameha ho
033_0425 ya boitsebiso kapa setifikeiti sa
033_0426 le mekgwa e meng ya
033_0428 nna ha etsahala hore o
033_0429 tlameha ho ba karolo ya
033_0430 ke molao wa motheo ho
033_0431 hong kong island
033_0432 la mokopi kapa lebitso la
033_0434 mabapi le maemo a setjhaba
033_0435 kopo ya bodulo ba saruri
033_0436 northern mariana islands
033_0437 ho ngodisa setsi sa tlhahlobo
033_0438 eo e leng karolo ya
033_0440 section e ka fana ka
033_0442 african unity oau
033_0443 palamente ya rephaboliki ya afrika
033_0445 form hydrogen bonds
033_0446 kiana
033_0447 lokela ho lefa lekgetho la
033_0448 moya wa ho etsa dintho
033_0449 test ban treaty
033_0450 nyetseng nyetsweng eo mohatsae e
033_0451 ya taelo ya semolao ya
033_0452 ya hao ya taelo ya
033_0453 random access memory
033_0454 le teng ka nako tsohle
033_0455 kopo e ka se elwe
033_0456 boafrika borwa ba rona bo
033_0457 grand
033_0459 real gdp growth
033_0460 le haufi le la sars
033_0461 nka nako e ka etsang
033_0463 tla neha ba leloko sebaka
033_0464 tshebetso tsa lekgetho la kuno
033_0465 ba ratang naha ya habo
033_0466 ho etsa diteko tsa hiv
033_0467 garrick
033_0470 sebokeng sa naha bakeng sa
033_0471 setsheng sa bafu sa poraefete
033_0472 ho sebedisa thaere e kgolwanyane
033_0473 state university alumni
033_0474 mane ho isa ho a
033_0476 leo mobu o leng ho
033_0477 sa ho ba le seabo
033_0478 nna a fetoha sebaka moo
033_0479 folaga e ntle ka ho
033_0480 ha eba poone e iswa
033_0481 ho fela ho potlakileng ha
033_0482 game boy advance
033_0483 polasi le nang le boleng
033_0485 tla tswela pele ho sebetsa
033_0486 tswang dipuong tsa sehlopha sa
033_0487 fact date july
033_0488 american nobel laureates
033_0489 seetebosigo
033_0490 ka potlako ka ho ya
033_0491 american sign language
033_0492 american science fiction
033_0493 o ne o sebediswa ke
033_0494 pakeng tsa batho ba babedi
033_0495 native american tribes
033_0496 a dintwa tsa ka malapeng
033_0497 david
033_0498 afidaviti eo ho entsweng kano
033_0499 nka nako e telele ho
033_0500 le ka baka la tshebedisano
033_0502 association football clubs
033_0504 dipehelo tsa leano di ka
033_0505 pope urban
033_0506 a saense a hlapi e
033_0507 late twentieth centuryodowska curie
033_0508 borwa kapa badudi ba saruri
033_0509 dikri diploma ya dilemo tse
033_0512 etsa kopo ya ho busetswa
033_0513 merero e ntlafaditsweng ya tlhahiso
033_0514 dutton
033_0515 tsa mmala o motsho le
033_0516 ditherisano tse kopanetsweng ke basebetsi
033_0517 ridgeway
033_0518 rugby union team
033_0519 ha ba hloke ho ntsha
033_0521 higher education institutions
033_0522 final resting place
033_0523 ya ka maemo a amohelehileng
033_0524 pakeng tsa afrika borwa le
033_0526 hore ha ba tsebe hore
033_0527 bo le ka tlase ho
033_0528 a ka etsa kopo ya
033_0529 itshebetsang puong jwalo ka bafetoledi
033_0530 mme o e tlatse ka
033_0531 british west indies
033_0532 batho ba afrika borwa bao
033_0533 mathata a phepelo ya motlakase
033_0534 mohahamoriti
033_0535 dikgatiso tsa menwana ya mokopi
033_0536 moo ntate wa hae a
033_0537 badudi ba saruri ba batlang
033_0538 ho tswela pele ka ho
033_0539 puo ya hore tshebediso ya
033_0540 ha e a tshwanela ho
033_0542 world trade center
033_0543 ho ithuta dipuo tse ding
033_0544 united states relations
033_0545 sebedisa lebitso le molaong le
033_0546 lebitsong la motho e mong
033_0547 pele ho ngodiso ho ya
033_0548 dipaterone tsa pula le ho
033_0549 bakeng sa ho romela hlapi
033_0550 ho tsamaya sebakeng seo feberu
033_0551 kgetho ya mefuta ya peo
033_0552 president woodrow wilson
033_0553 ya bt di tshwanetse ho
033_0555 power parity comparisons
033_0556 etsa hore ho be teng
033_0558 reactive oxygen species
033_0561 le hore hara mananeo a
033_0563 ho hlaha letloleng la dipenshene
033_0564 phethahatso
033_0565 cosmic microwave background
033_0566 romellwang ho tswa ka ntle
033_0567 american football conference
033_0568 mang a na le dikotola
033_0569 wa mofuta wa diphoofolo kapa
033_0571 abdur rahman khan
033_0572 o ka nna wa fafatsa
033_0573 tse nyenyane le tse mahareng
033_0574 ho ntshetsa pele dipuo tsa
033_0575 ntshetsopele ya molemi wa grain
033_0576 sehlopha sa tshebetso sa moralo
033_0577 leanong la naha la puo
033_0578 bonaparte
033_0579 laolla foromo ya kopo ho
033_0580 supreme court justice
033_0581 boahi ba bona ba naha
033_0583 north germanic languages
033_0584 italian roman catholics
033_0585 mister
033_0586 eo ho fihlwang ho yona
033_0587 jwang ho matlafatsa kapa hona
033_0588 hlakola le efe e sa
033_0589 ha jwale e amanang le
033_0590 ho latela dipehelo tsa molao
033_0591 savannah
033_0592 wa afrika borwa ntle le
033_0594 ba ke ke ba kgona
033_0595 le tlhokeho e potlakileng ya
033_0597 ka ho nka disampole tsa
033_0598 ho kenweng ho ona ka
033_0599 a re nke hore bolelele
033_0601 dibeke tse pedi ho ya
033_0602 kamano pakeng tsa theko le
033_0603 qhamakwane
033_0605 re batla ho tswela pele
033_0606 tla amohelwa jwalo ka setswantle
033_0607 hopola hore re kgona ho
033_0608 hore ke mahola afe a
033_0609 quantum field theory
033_0610 edwin
033_0611 san pedro sula
033_0612 botlhokong
033_0613 major political parties
033_0614 sebakeng seo ho sona disebediswa
033_0615 etsa hore o kgone ho
033_0617 abednego
033_0619 social democratic parties
033_0620 empa re ke ke ra
033_0621 kutu
033_0622 kopo ya hao ka tsela
033_0623 le dimela mabapi le mongobo
033_0625 lebanese armed forces
033_0626 ya moithuti e le yona
033_0627 major league baseball
033_0628 melongwana e seng e kgathetse
033_0629 haeba motsekiswa a hloleha ho
033_0630 hlahiswa e bongata bo bokae
033_0631 education
033_0632 ho nehelana ka tshebeletso ya
033_0633 zimbabwe
033_0634 diphaphosing tsa borutelo ka nako
033_0635 butle haholo hoo balemi ba
033_0636 ya jwalo ha se mang
033_0637 italian roman catholics
033_0638 ya naha le ntlo ya
033_0639 hore setjhaba se lekole ditaba
033_0641 hona ke hobane tsa tlhaho
033_0642 rock music groups
033_0644 ya hao e se e
033_0645 karabo eo o e fumanang
033_0648 o romele bopaki ba tefo
033_0650 langton
033_0651 o lokela ho o tsebisa
033_0652 art deco buildings
033_0653 ho ya ho tse robedi
033_0654 ha monga thepa a rata
033_0656 rugby union team
033_0657 tse amohetsweng jwalo ka ditswantle
033_0658 sepolesa sa afrika borwa kapa
033_0659 national park service
033_0661 tokelo ya hao ya ho
033_0662 ivy
033_0663 ya ho a mararo a
033_0666 tshebetso ya ho fetola se
033_0667 mekgwa e lokileng ya ho
033_0668 province
033_0669 clarence's
033_0670 belfast
033_0671 duncan
033_0672 presidential representative democratic
033_0673 ho teng dintlha tse mmalwa
034_0001 saense ya tlhaho dikri diploma
034_0003 united states president
034_0010 centrally planned economy
034_0016 ho ntsha raporoto ya radiology
034_0020 boholo ba masimo a hao
034_0021 rala mme o romele ditokomene
034_0022 tailor
034_0024 common law jurisdictions
034_0027 ho se ho kenwe ho
034_0028 senyesemane
034_0030 ha metsi pakeng tsa dikarolwana
034_0031 electron transport chain
034_0033 ho suthisa ka ho ya
034_0034 mang ya ka etsang kopo
034_0041 supreme allied commander
034_0042 motho a tshwerweng ho yona
034_0044 ozone layer protection
034_0045 peo ya ona e ka
034_0051 big bang model
034_0052 american psychiatric association
034_0056 hoer leano le phethahale bophelong
034_0059 dipeo le dipeo tse hlahang
034_0062 ya ho ba teng ha
034_0063 neelane ka kopo ya hao
034_0069 l cuin abbr
034_0070 hore ba kgone ho ba
034_0073 blood
034_0074 european economic area
034_0075 nelson mandela le thabo mbeki
034_0076 re kopa hore o ele
034_0077 diminerale kapa mahakwe a bohlokwa
034_0078 madison square garden
034_0080 la provinse kapa la naha
034_0088 formal diplomatic relations
034_0089 screen actors guild
034_0090 best supporting actor
034_0091 tjhelete ya hae e kenang
034_0094 setsi se haufi sa mesebetsi
034_0101 tlasa bolaodi ba mmuso wa
034_0102 kenngwa ha jine ya bt
034_0106 holy hand grenade
034_0111 chancellorsville
034_0120 numeric character references
034_0123 saint john river
034_0124 dingane
034_0126 gibbon
034_0130 a diphoofolo tsa afrika borwa
034_0132 e tswang ho registrar of
034_0133 sam
034_0138 a lehodimo nakong ya tshebediso
034_0141 ditho tsa palamente ha di
034_0145 ntate wa ngwana ya tswetsweng
034_0147 ke ema ka pela lona
034_0151 randburg
034_0157 ha eba kere e potolohisang
034_0159 mokgwa wa elektroniki kapa khaontareng
034_0160 empire
034_0161 tlhokeho ya mosebetsi wa ho
034_0162 leng se bolelang hore ho
034_0168 ha puo e lahlehelwa ke
034_0169 sireletsa le ho matlafatsa botsebi
034_0170 miller's
034_0175 feta pele hore ho na
034_0176 convention
034_0177 mahareng a phato ho fihlela
034_0182 sa witblits se neng se
034_0183 grammatical
034_0184 senqu
034_0185 tse felletseng tsa moo ho
034_0187 complaints
034_0191 new york jets
034_0192 madison square garden
034_0200 armoured fighting vehicles
034_0202 mahareng a phato ho fihlela
034_0206 army air corps
034_0207 russian civil war
034_0213 holy hand grenade
034_0215 moscow state university
034_0216 butlebutle ka mokgwa o ke
034_0220 randburg
034_0227 man
034_0228 be bonolo ho palama baesekele
034_0234 ke ema ka pela lona
034_0237 lokile pele o etsa kopo
034_0243 palestine liberation organization
034_0247 a ka nna a baka
034_0248 articles including recorded
034_0249 free methodist church
034_0252 kenngwa ha jine ya bt
034_0255 phepelo ya dijo tsa polasing
034_0257 madison square garden
034_0258 tumello e ngotsweng fatshe e
034_0262 power parity comparisons
034_0265 argentina ho ya afrika borwa
034_0267 high seas fleet
034_0270 united states president
034_0272 ho ntse ho na le
034_0276 african
034_0277 tlhahiso ya poone le soneblomo
034_0279 golden globe winners
034_0280 boqwabi
034_0281 french west africa
034_0284 good
034_0286 nuclear test ban
034_0289 mang ya ka etsang kopo
034_0290 congressional gold medal
034_0293 mang ya ikemiseditseng ho nehelana
034_0294 randfontein
034_0297 phethahatso ya leano lena e
034_0298 saint john river
034_0299 jwalo ka ha ho hlokeha
034_0302 indastering e batsi ya temo
034_0305 dingane
034_0307 tsa lekgetho di ka phethahatswa
034_0308 ka morero wa ho matlafatsa
034_0316 rala mme o romele ditokomene
034_0317 valhalla
034_0319 tlhahiso ya poone tlasa nosetso
034_0321 miller's
034_0322 bridgeport
034_0327 sireletsa le ho matlafatsa botsebi
034_0332 cathode ray tube
034_0333 complaints
034_0338 september
034_0343 maseru
034_0350 o neng o rena ditherisanong
034_0354 grammatical
034_0355 ho hlokeha lengolo la tumello
034_0356 ka hara naha le tla
034_0358 la provinse kapa la naha
034_0362 gibbon
034_0364 tsa ka hara naha le
034_0365 hlahisa dijothollo di phahame haholo
034_0368 l cuin abbr
034_0369 sam
034_0371 internet protocol suite
034_0377 bilateral immunity agreement
034_0378 recreation
034_0382 international atomic energy
034_0383 van der waals
034_0386 midrand
034_0388 makgoweng
034_0389 moaho wa lekgotla la naha
034_0390 o motsho le o mosweu
034_0391 o okina ahu
034_0392 ditaba tse amanang le molao
034_0393 hoer leano le phethahale bophelong
034_0396 following world war
034_0400 kgopolo ya hore dihlahiswa tse
034_0404 nako e telele ho tiisitse
034_0406 harry
034_0410 le reng limited le tla
034_0411 kopi e tiiseditsweng ya bukana
034_0420 formal diplomatic relations
034_0423 new york yankees
034_0425 potter's
034_0430 mokgwa wa elektroniki kapa khaontareng
034_0431 e nang le share capital
034_0434 ya ho lebela ya bopolesa
034_0437 magnetic resonance imaging
034_0439 fact date march
034_0440 new york jets
034_0441 tlamehile maoto le matsoho ho
034_0443 ka mora kotulo ya koro
034_0447 states environmental protection
034_0449 chancellorsville
034_0452 madison square garden
034_0456 fact date august
034_0459 ba ka hodimo ho dilemo
034_0461 hartbeespoort
034_0462 early church fathers
034_0468 metsimaholo
034_0471 rona bo tataiswe haholo ke
034_0474 modern orthodox judaism
034_0475 ho etsa kopo ya taelo
034_0478 north germanic languages
034_0479 proffesor
034_0486 ya thuso bakeng sa ho
035_0001 national science foundation
035_0003 tswa ho monga setsha seo
035_0004 e le kgolo ho eo
035_0005 ile wa rekisetswa lefapha la
035_0006 tikoloho
035_0007 fifa world cup
035_0008 european economic area
035_0010 seo o hopotseng ho se
035_0011 tjhelete ya hae e kenang
035_0015 poone le dinawa tsa soya
035_0016 leng le le leng kapa
035_0017 moo motho a fumanang kuno
035_0018 tumello e ngotsweng fatshe e
035_0019 o ne a atisa ho
035_0020 o lokela ho ba motho
035_0021 bad
035_0023 efe kapa efe e boletsweng
035_0024 bakeng sa nako e kgutshwane
035_0025 north germanic languages
035_0027 south asian association
035_0028 moo ho ipehilweng ka tsela
035_0029 kofi
035_0034 butlebutle ka mokgwa o ke
035_0035 ka mokgwa o hlakileng ho
035_0036 tlasa merero e hlwauweng mona
035_0038 moscow state university
035_0043 holy hand grenade
035_0044 common law jurisdictions
035_0045 ho sireletsa le ho matlafatsa
035_0046 ho se ho kenwe ho
035_0047 ho fanwa ka sona ka
035_0053 batho
035_0064 magnetic resonance imaging
035_0068 san francisco giants
035_0070 tsena tsohle di ile tsa
035_0082 durban
035_0093 chancellorsville
035_0094 sa witblits se neng se
035_0097 madison square garden
035_0099 central
035_0101 bridgeport
035_0102 foreign direct investment
035_0103 empire
035_0104 midrand
035_0116 le ka moo o ka
035_0118 eighty years war
035_0120 nuclear test ban
035_0122 bilateral immunity agreement
035_0131 october
035_0134 russian civil war
035_0135 american jewish people
035_0138 randburg
035_0139 tse felletseng tsa moo ho
035_0140 tailor
035_0144 states environmental protection
035_0148 be bonolo ho palama baesekele
035_0150 history
035_0151 harry
035_0152 nfc championship game
035_0153 roman catholic priests
035_0155 dingane
035_0158 ding le tse ding tse
035_0160 african
035_0161 taolo ka dikhemikhale le mefuta
035_0162 lekgotla la ho ntshuwa ha
035_0164 la afrika borwa la basebetsi
035_0167 diprojeke tsa bohlokwa tsa lenaneo
035_0168 baahi ba afrika borwa kapa
035_0170 international atomic energy
035_0172 o motsho le o mosweu
035_0173 protea
035_0174 ho behela taelo ka thoko
035_0179 miller's
035_0185 television shows set
035_0187 articles including recorded
035_0189 e nang le share capital
035_0191 borwa e se nang morabe
035_0195 proffesor
035_0207 citation needed april
035_0209 national hockey league
035_0211 ha ho kgethwa dipuo tseo
035_0212 internet protocol suite
035_0221 hospital
035_0223 american film producers
035_0225 ka morero wa ho matlafatsa
035_0235 madison square garden
035_0242 recreation
035_0246 efe kapa efe eo ho
035_0260 system
035_0263 free methodist church
035_0275 environmental protection agency
035_0277 haholo ke moruo wa tsona
035_0282 le o mong o na
035_0285 armoured fighting vehicles
035_0289 golden globe winners
035_0291 la ditaba tsa lehae hore
035_0299 mabapi le tlhahiso ya koro
035_0307 strong nuclear force
035_0308 randfontein
035_0317 le ho romela ditokomane ho
035_0319 ya tumello ya ho romela
035_0322 mahola e tshwanetse ho etswa
035_0324 sepolesa sa aforikaborwa e lefe
035_0331 junior high school
035_0332 bill
035_0333 tswela pele ho sebetsa le
035_0334 motor vehicle manufacturers
035_0336 bay
035_0342 award winning authors
035_0343 red blood cells
035_0346 power parity comparisons
035_0349 cathode ray tube
035_0353 bao e leng ditho tsa
035_0360 van der waals
035_0368 saint john river
035_0371 motho ka mong o tlamehile
035_0377 mmalwa le traste ditho tsohle
035_0386 gibbon
035_0388 modern orthodox judaism
035_0390 army air corps
035_0392 september
035_0398 congressional gold medal
035_0399 bragg
035_0400 average family size
035_0405 military coup
035_0415 southwestern united states
035_0419 primitive recursive functions
035_0420 united states army
035_0421 jwalo ka ha ho hlokeha
035_0423 good
035_0424 potter's
035_0428 royal albert hall
035_0430 buddhism
035_0431 hlahisa dijothollo di phahame haholo
035_0432 e fuwa baahi ba naha
035_0435 le eneji le la dikgwebo
035_0436 complaints
035_0437 hlodisana le dijothollo mabapi le
035_0453 formal diplomatic relations
035_0457 american psychiatric association
035_0460 recent common ancestor
035_0461 french west africa
035_0463 screen actors guild
035_0466 poids et mesures
035_0469 l cuin abbr
035_0473 golden globe film
035_0474 tlamehile maoto le matsoho ho
035_0476 palestine liberation organization
035_0477 fuwa ditokelo tsa bona tsa
035_0479 senqu
035_0483 american male singers
035_0485 mabitso a bonkgetheng bakeng sa
035_0490 aterese ya moo o dulang
035_0491 sam
035_0492 ozone layer protection
035_0493 man
035_0495 setefikeiti sa boingodiso ba koloi
035_0499 naha ya afrika borwa kapa
035_0501 tlhekelo ka letona la bonono
035_0502 united states district
035_0503 liberal arts college
035_0505 thibelang lefu ka mora ketsahalo
035_0506 ho ngodisa jwalo ka setsebi
035_0508 science fiction hall
035_0510 ya grain sa ya tlhahiso
036_0001 tsa tlhahlobo tse molaong mme
036_0005 dilemong tse ngata tse fetileng
036_0016 ho thehwa ha diyuniti tsa
036_0020 hubble space telescope
036_0024 afrika borwa jwalo ka ha
036_0026 notable examples include
036_0027 nyetseng nyetsweng eo mohatsae e
036_0028 batshwaruwa
036_0029 ford motor company
036_0033 valence bond theory
036_0042 american musical theatre
036_0045 dennilton
036_0055 war political
036_0057 ludwig von mises
036_0059 pimville
036_0060 ice hockey team
036_0066 hong kong island
036_0067 morao ka dilemo tse ngata
036_0068 ka puo la afrika borwa
036_0070 ho fana ka beile le
036_0074 average life expectancy
036_0075 old east norse
036_0079 ka moo ho ka kgonehang
036_0080 cognitive behavioral therapy
036_0084 francisco bay area
036_0089 billy
036_0092 leondale
036_0094 mabapi le tshireletso ya dijo
036_0095 american television actors
036_0101 nebula award winning
036_0111 african unity oau
036_0112 sexually transmitted diseases
036_0115 o nka kilograma e le
036_0117 hauhelele
036_0118 northern mariana islands
036_0119 union member states
036_0126 ya ngodiso e sa kgutlisweng
036_0128 professional american football
036_0130 episcopal church usa
036_0132 new testament canon
036_0137 fact date january
036_0140 fihlwang ho yona ya mohlahisi
036_0148 nobel prize winners
036_0149 ya boitsebiso kapa setifikeiti sa
036_0152 toka
036_0153 leo mobu o leng ho
036_0154 ena ka sepheo sa ho
036_0157 garrick
036_0160 kopanelo ya boitshwaro bo botle
036_0163 le mekgwa e meng ya
036_0166 ho bonahala eka ha ho
036_0173 ancient near east
036_0178 tsa diporofensi di a nahanwa
036_0180 management
036_0181 osama bin laden
036_0184 sa moralo wa puo ho
036_0193 high middle ages
036_0199 ya south african revenue service
036_0200 re tla tswela pele ka
036_0208 new york jets
036_0214 hard disk drive
036_0222 of access to information act
036_0226 black sea coast
036_0227 united states government
036_0229 grisly
036_0236 international astronomical union
036_0241 billion years ago
036_0244 south
036_0245 kansas city royals
036_0246 leng hore ha ho hlokehe
036_0249 tshebetso tsa lekgetho la kuno
036_0253 ho etsa diteko tsa hiv
036_0254 tlameha ho felehetsa kopo ka
036_0256 king james version
036_0258 meade
036_0260 early morning hours
036_0264 nna a fetoha sebaka moo
036_0297 national baseball hall
036_0299 western united states
036_0300 religious
036_0307 europe music
036_0308 royal dutch shell
036_0310 jwalo ka ha ho bontshitswe
036_0314 open source initiative
036_0316 rapid economic growth
036_0319 memphis
036_0322 imperial japanese navy
036_0323 mona afrika borwa e lokelwa
036_0325 ka hara lekgotla la naha
036_0327 aterese le nomoro ya mohala
036_0330 clarify date march
036_0333 dubious date april
036_0335 states district court
036_0339 austrian school economists
036_0341 music awards winners
036_0344 george
036_0345 ditletlebo
036_0353 weposaeteng ya lefapha la temo
036_0354 british west indies
036_0356 united states declaration
036_0358 western united states
036_0361 united states dollar
036_0362 old garden roses
036_0366 catherine
036_0370 united states navy
036_0371 roodepoort
036_0374 positive real numbers
036_0380 south sandwich islands
036_0386 video game developers
036_0388 melbourne football club
036_0400 roman catholic archbishops
036_0403 american nobel laureates
036_0406 ya naha e tshwereng motho
036_0410 army occupied cypriot
036_0414 asian financial crisis
036_0416 ba puo e tla hloka
036_0418 station
036_0426 aung san suu
036_0428 frank lloyd wright
036_0431 european union member
036_0432 general public license
036_0446 persian gulf states
036_0448 united states began
036_0451 re tla dula re ntse
036_0452 samuel's
036_0453 california state university
036_0455 hang ha ho se ho
036_0458 animated television series
036_0461 united states district
036_0473 pakeng tsa batho ba babedi
036_0474 security assistance force
036_0477 larry
036_0480 borwa di tlameha ho ngodiswa
036_0481 make extensive use
036_0482 ba hore o na le
036_0483 state university alumni
036_0489 united states air
036_0491 le hore ho tle ho
036_0499 winter olympic games
037_0001 metsi a ka nnang a
037_0002 ena ka sepheo sa ho
037_0004 o lokela ho etsa kopo
037_0007 ancient near east
037_0010 box office success
037_0011 war political
037_0014 e tiiseditsweng ha ditokomane di
037_0015 thibelang lefu ka mora ketsahalo
037_0016 latelang di tla kotjwa bakeng
037_0017 united states began
037_0019 puo ya bajete le setatemente
037_0020 liberal arts college
037_0021 e poraefete ya ho fihlella
037_0023 ena ke e nngwe ya
037_0025 wa ho qala wa leloko
037_0026 tse ntjha tsa ho banka
037_0029 ba hore khopi ya foromo
037_0030 kopanelo ya boitshwaro bo botle
037_0031 tlameha ho balwa ka botebo
037_0035 islamic conference oic
037_0036 petroleum exporting countries
037_0037 western united states
037_0038 ho kenyelletswa le ditaba tse
037_0040 ho ba motswadi wa letholwa
037_0041 lejwe
037_0045 ka puo la afrika borwa
037_0046 dilemong tse mmalwa tse fetileng
037_0047 republican party united
037_0048 california state university
037_0050 o nka kilograma e le
037_0051 theko ya sehlahiswa le bongata
037_0054 clarify date march
037_0055 ditletlebo
037_0056 ba ratang naha ya habo
037_0058 tse ikgethileng tsa kgatello di
037_0059 ke notary public kapa mokhomishenara
037_0060 ka hlaloswa ka mokgwa o
037_0061 international astronomical union
037_0062 a dintwa tsa ka malapeng
037_0063 british foreign secretary
037_0064 major professional sports
037_0067 national baseball hall
037_0068 nobel prize winners
037_0070 ho ngodisa jwalo ka setsebi
037_0072 dipalopalo
037_0074 mananeo a mmuso a ho
037_0077 ya naha e tshwereng motho
037_0078 african unity oau
037_0079 rapid economic growth
037_0081 e ngata ho feta e
037_0082 garrick
037_0084 poone ya selelekela mabapi le
037_0085 close air support
037_0086 ho fafatsa kgahlanong le mahola
037_0087 mekgatlo e adimanang ka tjhelete
037_0088 bo botjha le ho sebedisa
037_0090 batshwaruwa
037_0091 ya tse romellwang ka ntle
037_0092 motho ofe kapa ofe eo
037_0093 american nobel laureates
037_0094 old east norse
037_0095 francisco bay area
037_0097 wa setjhaba lawrence mushwana o
037_0098 high middle ages
037_0099 toka
037_0100 leng hore ha ho hlokehe
037_0101 tse ka hodimo ho tse
037_0102 ofe kapa ofe wa mmuso
037_0104 ya hao ya boitsebiso kapa
037_0105 nebula award winning
037_0106 of access to information act
037_0107 nakong ya dikgwedi tsa hlabula
037_0108 tse haufi tsa ntshetsopele ya
037_0109 letowana
037_0110 american musical theatre
037_0113 europe music
037_0114 mona afrika borwa e lokelwa
037_0115 ho kganna ya borutehi bo
037_0116 kopo e tlameha ho felehetswa
037_0118 ferry
037_0120 valence bond theory
037_0122 wa seboka sa naha le
037_0123 average life expectancy
037_0125 animated television series
037_0126 o ne o sebediswa ke
037_0127 haufi tsa ntshetsopele ya setjhaba
037_0129 video game developers
037_0130 hubble space telescope
037_0135 tshebetso tsa lekgetho la kuno
037_0136 knights grand cross
037_0138 ho fela ho potlakileng ha
037_0139 united states navy
037_0142 balemi ba ntseng ba thuthuha
037_0144 e na le dimojule tse
037_0147 hauhelele
037_0148 ha eba poone e iswa
037_0149 london
037_0152 aung san suu
037_0155 fact date january
037_0157 mane ho isa ho a
037_0159 la nakwana le lokelwang ho
037_0160 sebediswang wa ho phethola mobu
037_0164 phahameng ya poone le mmaraka
037_0166 ditlhaloso tsa lengolo la truste
037_0167 islamic conference oic
037_0168 ya boitsebiso kapa setifikeiti sa
037_0171 motherwell
037_0174 german air force
037_0175 samuel's
037_0178 merafong le temong bakeng sa
037_0181 music awards winners
037_0184 persian gulf states
037_0185 hong kong island
037_0187 united states government
037_0188 ka hara naha ya afrika
037_0189 jwalo ka ha ho bontshitswe
037_0196 pele ho ka jalwa sejothollo
037_0197 ba hore o na le
037_0198 e tshwanetse ho phethwa ka
037_0200 union member states
037_0203 ho beha leihlo tshebediso ya
037_0206 ya hao ka tsela ya
037_0207 american political writers
037_0208 tswela pele ka lenaneo la
037_0209 phasepoto ya hao ya afrika
037_0210 kenya tshebetsong mokgwa wa ho
037_0215 e ne e le sebaka
037_0216 king james version
037_0217 ho ba le seabo lenaneong
037_0219 security assistance force
037_0221 melbourne football club
037_0226 ha ho ne ho ena
037_0228 hang ha ho se ho
037_0232 ke molao wa motheo ho
037_0233 catherine
037_0235 mmala o motsho le bosweu
037_0236 seetebosigo
037_0240 tlhekelo ka letona la bonono
037_0241 dikokwanyana ka thibelo ya mefuta
037_0243 boramesebetsi ba lokela ho saena
037_0244 hard disk drive
037_0245 sebaka moo sepudutsi se ke
037_0246 ya nka bolelele ba dibeke
037_0247 eldorado
037_0249 random access memory
037_0250 khopi ya rasiti e saennweng
037_0251 billion years ago
037_0252 asian financial crisis
037_0253 dikgatiso tsa tshebediso ya dipuo
037_0255 kopo ya bodulo ba saruri
037_0257 ho tshela oli e ntjha
037_0261 state university alumni
037_0262 ka puo ya kgetho ya
037_0263 president harry
037_0264 american sign language
037_0266 american voice actors
037_0267 le tumello e ngotsweng fatshe
037_0268 ford motor company
037_0269 a hlahisa dikgwebo tsa tsona
037_0271 ya ngodiso e sa kgutlisweng
037_0272 ya south african revenue service
037_0273 pakeng tsa batho ba babedi
037_0274 palestinian national authority
037_0276 meade
037_0278 pro football hall
037_0280 united states declaration
037_0283 leondale
037_0284 european union member
037_0286 austrian school economists
037_0288 episcopal church usa
037_0289 ho thehwa ha diyuniti tsa
037_0293 states district court
037_0296 ho ngodisa setsi sa tlhahlobo
037_0297 old garden roses
037_0300 khopi e netefaditsweng ya bukana
037_0301 ha o a dumellwa ho
037_0304 dennilton
037_0305 northern mariana islands
037_0306 ho bonahala eka ha ho
037_0307 extension
037_0310 le hore re kgone ho
037_0311 south sandwich islands
037_0312 nang le tokelo ya ho
037_0314 dintlha dife kapa dife tse
037_0318 sexually transmitted diseases
037_0319 comic book series
037_0320 dikgopo tsa mahlaku hloohong ya
037_0321 atlantic treaty organization
037_0324 morao ka dilemo tse ngata
037_0335 dubious date april
037_0336 american free trade
037_0337 fact date july
037_0338 billy
037_0340 petroleum exporting countries
037_0341 ho ngodisa khampani e poraefete
037_0342 boyce
037_0345 tone ka nngwe ho tsamaisa
037_0346 tiisitse hore ha ho hlwahlwa
037_0348 ludwig von mises
037_0352 theko ya oli e tala
037_0353 ya bt papisong le mekgwa
037_0355 ho ya ho se seng
037_0357 royal dutch shell
037_0358 ice hockey team
037_0359 atlantic
037_0360 mme ho tla ya ka
037_0366 ba thupelo ba lokela ho
037_0368 ya tlhahisoleseding tshebetsong ya toka
037_0369 moya wa ho etsa dintho
037_0370 moo e leng hore ho
037_0371 early morning hours
037_0372 functional programming languages
037_0374 ho itsebisa jwalo ka ntate
037_0375 black sea coast
037_0377 ya sebolayakokwanyana seo o se
037_0378 northern
037_0379 general public license
037_0381 tsa lehae provinseng eo o
037_0386 a sa siya wili e
037_0387 game boy advance
037_0388 sound
037_0389 mora ho ba kopo ya
037_0390 army occupied cypriot
037_0392 kansas city royals
037_0393 south
037_0395 open source initiative
037_0396 borwa di tlameha ho ngodiswa
037_0398 ya grain sa ya tlhahiso
037_0399 united states dollar
037_0400 kapa o tshwerwe tlasa mental
037_0402 pimville
037_0406 osama bin laden
037_0407 pope benedict
037_0408 nna a fetoha sebaka moo
037_0409 ya ho ba teng ho
037_0410 american television actors
037_0411 inshorense ya tse sebediswang mobung
037_0413 eo ho dumellanweng ka yona
037_0416 make extensive use
037_0417 imperial japanese navy
037_0418 tlameha ho felehetsa kopo ka
037_0420 rona ba ho lwantsha botlokotsebe
037_0421 le haebe ho boletswe ka
037_0422 states unemployment rate
037_0425 di fetwa ka bohlwahlwa ke
037_0426 di ka nna tsa fetoha
037_0429 grand
037_0430 ba badudi ba saruri ba
037_0431 wa diphoofolo kapa bolaodi bo
037_0432 transvala
037_0433 marcel
037_0434 ho fana ka beile le
037_0435 le ho haha setjhaba sa
037_0436 ho tswela pele ho ya
037_0437 la ho qala la nakwana
037_0439 ramolodi
037_0441 ho feta ka moo ho
037_0442 o be o na le
037_0443 western european countries
037_0445 clarify date february
037_0446 di ka qojwang ka teng
037_0447 sena se ka qetella ka
037_0449 western united states
037_0450 national public radio
037_0451 bethal
037_0452 notable examples include
037_0454 monetary fund imf
037_0456 ho tla nne ho dule
037_0463 ho etsa diteko tsa hiv
037_0464 weposaeteng ya lefapha la temo
037_0470 frank lloyd wright
037_0472 ka mokgwa o hlwahlwa ho
037_0473 lokela ho lefa lekgetho la
037_0475 rephaboliki
037_0476 mokga oo a etsang kopo
037_0477 new testament canon
037_0479 e bile wa bohlokwa ho
037_0482 tlameha ho ba karolo ya
037_0483 e ya weposaeteng ya lefapha
037_0484 tsebiso ya lefapha le molaong
037_0485 united states district
037_0486 grisly
037_0487 ho bohlokwa ka ho fetisisa
037_0490 management
037_0491 ho tswa ho moabi ya
037_0494 fane ka nomoro ya akhauntu
037_0495 temeng ya saense ya lekgotleng
037_0497 kgannelang tlhaselong e eketsehang ya
037_0500 tsa palamente di tlameha ho
037_0501 clarify date november
037_0502 winter olympic games
037_0505 le haufi le la sars
037_0508 ya b di be tharo
037_0510 guru granth sahib
037_0511 n g rjuna
037_0512 john von neumann
037_0513 american musical theatre
037_0514 tekolo botjha ya ditlwaelo le
037_0516 ya seteraeke kapa ho notlellwa
037_0519 sehla se hlahlamang sa ho
037_0522 essential fatty acids
037_0523 kapa ofe ya batlang ho
037_0526 real gdp growth
037_0527 ba mmalwa le traste ditho
037_0528 ya hao setatementeng sa banka
037_0529 american short story
038_0006 ludwig von mises
038_0007 palestinian national authority
038_0013 persian gulf states
038_0014 hard disk drive
038_0015 united states navy
038_0016 valence bond theory
038_0024 europe music
038_0025 dintlha dife kapa dife tse
038_0027 batshwaruwa
038_0030 northern
038_0031 ha eba o na le
038_0033 a hlahisa dikgwebo tsa tsona
038_0036 ho etsa diteko tsa hiv
038_0039 boramesebetsi ba lokela ho saena
038_0040 jwalo ka ha ho bontshitswe
038_0043 ya foromo ena e fuwe
038_0045 united states began
038_0047 tlameha ho ba karolo ya
038_0050 saense ya lekgotleng la molao
038_0051 billion years ago
038_0053 ho tla nne ho dule
038_0054 general public license
038_0055 billy
038_0058 sa silafatsa phepelo ya metsi
038_0060 kopanelo ya boitshwaro bo botle
038_0061 state university alumni
038_0062 phemiti ya ditswantle ya bongaka
038_0066 high middle ages
038_0067 tsa lehae provinseng eo o
038_0070 american political writers
038_0071 box office success
038_0072 national public radio
038_0073 leondale
038_0078 tlameha ho felehetsa kopo ka
038_0079 knights grand cross
038_0080 atlantic
038_0081 sefe sa tlhahlobo ya laesense
038_0082 le katleho ya sepheo sa
038_0083 music awards winners
038_0084 make extensive use
038_0085 ka moo ho ka kgonehang
038_0086 hubble space telescope
038_0088 phasepoto ya hao ya afrika
038_0089 morao ka dilemo tse ngata
038_0090 wa batswadi kapa mohlokomedi wa
038_0092 ke boikarabelo ba moahi e
038_0093 ya ho ba teng ho
038_0094 ka puo la afrika borwa
038_0095 afrika borwa jwalo ka ha
038_0097 park
038_0098 haufi tsa ntshetsopele ya setjhaba
038_0099 united states district
038_0100 kopo ya bodulo ba saruri
038_0101 video game developers
038_0102 old east norse
038_0103 di ka romelwa ofising efe
038_0105 malwetse a pustule a bakwang
038_0106 tsa ho lefa ka mora
038_0107 tse ikgethileng tsa kgatello di
038_0109 western united states
038_0110 toka le ntshetsopele ya molao
038_0111 nakong ya dikgwedi tsa hlabula
038_0112 dikgopo tsa mahlaku hloohong ya
038_0113 ba bolaodi ba bophelo bo
038_0114 leng la mahlakore ana a
038_0115 polasi le nang le boleng
038_0117 dintlha tsena ka boraro ba
038_0118 ka tsela efe kapa efe
038_0121 nyetseng nyetsweng eo mohatsae e
038_0122 wa ho qala wa leloko
038_0123 theko ya sehlahiswa le bongata
038_0124 moo se sa tshwanelang se
038_0125 ditlhaloso tsa lengolo la truste
038_0126 puo ya bajete le setatemente
038_0127 catherine
038_0128 tsa diporofensi di a nahanwa
038_0132 international astronomical union
038_0133 e bile wa bohlokwa ho
038_0134 le ngodisitsweng mona afrika borwa
038_0135 motho ofe kapa ofe eo
038_0137 lefuweng bakeng sa tokelo ya
038_0143 ka hara lekgotla la naha
038_0144 atlantic treaty organization
038_0145 sound
038_0146 security assistance force
038_0149 austrian school economists
038_0151 clarify date march
038_0153 episcopal church usa
038_0155 american television actors
038_0156 le haebe ho boletswe ka
038_0158 o nka kilograma e le
038_0163 bang ba tlosa pompo pele
038_0164 war political
038_0165 western european countries
038_0166 ya south african revenue service
038_0167 di fetwa ka bohlwahlwa ke
038_0171 american free trade
038_0172 tse ka hodimo ho tse
038_0174 of access to information act
038_0176 ba puo e tla hloka
038_0181 islamic conference oic
038_0182 game boy advance
038_0183 american free trade
038_0184 open source initiative
038_0185 ikemetseng
038_0186 ka ho etsa kopo ya
038_0187 roodepoort
038_0188 islamic conference oic
038_0189 poone ya selelekela mabapi le
038_0193 ho bohlokwa ka ho fetisisa
038_0194 european union member
038_0196 theko ya oli e tala
038_0200 ba badudi ba saruri ba
038_0201 la ho qala la nakwana
038_0202 african unity oau
038_0203 ntle mofuta wa hlapi o
038_0204 francisco bay area
038_0207 o ne o sebediswa ke
038_0208 rapid economic growth
038_0209 aterese le nomoro ya mohala
038_0210 kopo e ka se elwe
038_0211 ka rakonteraka o na le
038_0214 ice hockey team
038_0215 le hore re kgone ho
038_0216 efe kapa efe ya yona
038_0217 ho fela ho potlakileng ha
038_0218 ho feta ka moo ho
038_0220 e netefaditsweng ya bukana ya
038_0221 king james version
038_0222 president harry
038_0223 ba thupelo ba lokela ho
038_0224 tiisitse hore ha ho hlwahlwa
038_0227 tse ntjha tsa ho banka
038_0229 dikgeong tsa mesebetsi ya sehlopha
038_0230 random access memory
038_0234 la nakwana le lokelwang ho
038_0236 kansas city royals
038_0237 ford motor company
038_0239 pro football hall
038_0240 hloleha ho etsa jwalo ho
038_0241 seetebosigo
038_0244 ya makgulo bakeng sa kgwebo
038_0245 ya tlhaselo e eso fihle
038_0246 grisly
038_0247 ya hao e tla lekolwa
038_0248 tlhakiso ya mahlale a puo
038_0249 united states declaration
038_0250 eldorado
038_0251 masimo a mang le a
038_0252 tone ka nngwe ho tsamaisa
038_0254 memphis
038_0255 south sandwich islands
038_0257 tse tshwanetseng ho elwa hloko
038_0259 semmuso ya lekgetho e ka
038_0261 union member states
038_0262 mora ho ba kopo ya
038_0264 ke wa qobella molemi ho
038_0265 tsamaiso ya sehlopha sa boithuto
038_0267 nobel prize winners
038_0268 religious
038_0269 botoloki ka mohala tsa afrika
038_0270 samuel's
038_0271 tlhekelo ka letona la bonono
038_0272 states district court
038_0274 ya naha le ya matjhaba
038_0277 sena se ka qetella ka
038_0278 diporofensi di a nahanwa boemong
038_0280 ha ho ne ho ena
038_0282 republican party united
038_0284 thibelang lefu ka mora ketsahalo
038_0285 ya nka bolelele ba dibeke
038_0286 clarify date february
038_0287 e ne e le sebaka
038_0289 tlosa pompo pele ba ilo
038_0291 kapa ho hloka bokgoni ba
038_0292 ya ba mmalwa e ngodisitsweng
038_0293 motherwell
038_0294 le tumello e ngotsweng fatshe
038_0296 nebula award winning
038_0298 science fiction hall
038_0299 tshwaneleha ka mora nako e
038_0301 toka
038_0302 monetary fund imf
038_0303 inshorense ya tse sebediswang mobung
038_0304 kgothalletswa ho ithuta dipuo tse
038_0305 latelang di tla kotjwa bakeng
038_0307 roman catholic archbishops
038_0308 lekala la thuto le thupelo
038_0310 mang le a mang a
038_0312 comic book series
038_0315 ba hore o na le
038_0316 ka mokgwa o hlwahlwa ho
038_0317 kiana
038_0318 boston red sox
038_0319 frank lloyd wright
038_0321 united states air
038_0322 fact date january
038_0323 khopi ya rasiti e saennweng
038_0325 gcis e ka fana ka
038_0326 ho bonahala eka ha ho
038_0327 bakeng la tsebo ya mosebetsi
038_0328 tsamaiso ya mawatle le mabopo
038_0330 american musical theatre
038_0331 ka puo ya kgetho ya
038_0333 bethal
038_0334 ferry
038_0336 pakeng tsa batho ba babedi
038_0341 close air support
038_0342 black sea coast
038_0343 ditletlebo
038_0344 dubious date april
038_0347 a ka nna a fafatswa
038_0350 management
038_0354 kapa badudi ba saruri ba
038_0358 ya phemiti ya mosebetsi ya
038_0359 phetoho efe kapa efe e
038_0360 aung san suu
038_0361 pimville
038_0363 american nobel laureates
038_0364 extension
038_0366 army occupied cypriot
038_0371 grand
038_0374 kopo e tlameha ho felehetswa
038_0375 ya tlhahisoleseding tshebetsong ya toka
038_0377 ho kganna ya borutehi bo
038_0378 rona ba ho lwantsha botlokotsebe
038_0379 tjhelete eo e seng ya
038_0380 ka kamano ya ho se
038_0383 meade
038_0384 american sign language
038_0385 kopo ya hao e se
038_0387 pope benedict
038_0388 dipalopalo
038_0389 rephaboliki
038_0390 re tla dula re ntse
038_0391 phahameng ya poone le mmaraka
038_0393 royal dutch shell
038_0396 average life expectancy
038_0398 hang ha ho se ho
038_0400 positive real numbers
038_0402 etsa kopo bakeng sa phemiti
038_0403 ho etsa kopo ya tumello
038_0406 george
038_0408 lejwe
038_0410 ena ke e nngwe ya
038_0411 e poraefete ya ho fihlella
038_0412 mabapi le maemo a setjhaba
038_0413 ke mang ya ka etsang
038_0414 balemi ba ntseng ba thuthuha
038_0415 sa moralo wa puo ho
038_0416 new testament canon
038_0423 ho ngodisa khampani e poraefete
038_0425 matsatsi a seng ka tlase
038_0427 seo o lokelang ho se
038_0429 new york jets
038_0432 ho sebedisa thaere e kgolwanyane
038_0433 fact date july
038_0434 tshebediso e phahameng ya sesebediswa
038_0437 mekgatlo e adimanang ka tjhelete
038_0438 ho ya ka palo ya
038_0439 lokela ho phatlalatsa ditokomane hanghang
038_0440 tla neha ba leloko sebaka
038_0441 ya naha e tshwereng motho
038_0442 osama bin laden
038_0443 old garden roses
038_0444 ya bt papisong le mekgwa
038_0446 ba hore khopi ya foromo
038_0447 moahi wa afrika borwa kapa
038_0449 transvala
038_0451 northern mariana islands
038_0453 latela dipehelo tsa molao wa
038_0454 a sa siya wili e
038_0455 bo botjha le ho sebedisa
038_0456 e ya weposaeteng ya lefapha
038_0457 di ka qojwang ka teng
038_0458 mmala o motsho le bosweu
038_0460 ho tswela pele ho ya
038_0461 united states dollar
038_0463 ho thehwa ha diyuniti tsa
038_0464 tsa tlhahlobo tse molaong mme
038_0465 ya boitsebiso kapa setifikeiti sa
038_0466 grain sa ya tlhahiso ya
038_0467 tsa palamente di tlameha ho
038_0468 le nngwe feela afrika borwa
038_0469 ho fana ka beile le
038_0470 baemedi ba porofensi ho ncop
038_0474 le hore ho tle ho
038_0475 borwa di tlameha ho ngodiswa
038_0478 station
038_0479 garrick
038_0481 hloka tumello e ikgethang e
038_0484 ya ditaba tsa lehae kapa
038_0485 khopi e netefaditsweng ya bukana
038_0486 moo e leng hore ho
038_0488 cognitive behavioral therapy
038_0489 ho beha leihlo tshebediso ya
038_0490 ancient near east
038_0491 leng hore ha ho hlokehe
038_0492 eo ho dumellanweng ka yona
038_0493 notable examples include
038_0494 weposaeteng ya lefapha la temo
038_0496 dennilton
038_0498 major professional sports
038_0500 liberal arts college
038_0502 n g rjuna
038_0503 section e ka fana ka
038_0504 kuno e phahameng ya dijothollo
038_0505 tlameha ho tlatswa ke mokopi
038_0506 ka ntle eo e leng
038_0507 le haufi le la sars
038_0512 sebakeng seo ho sona disebediswa
038_0513 power parity comparisons
038_0515 hloka bokgoni ba ho nehelana
038_0516 la dithuto la afrika borwa
038_0519 day saint movement
038_0521 ridgeway
038_0523 badudi ba saruri ba batlang
038_0525 sehlopha sa tshebetso sa moralo
038_0530 ebe o nka kilograma e
038_0531 world trade center
038_0533 british west indies
038_0537 social democratic parties
038_0538 butle haholo hoo balemi ba
038_0539 major political parties
038_0540 tswang dipuong tsa sehlopha sa
038_0541 form hydrogen bonds
038_0542 north west company
038_0544 president
038_0545 guano islands act
038_0548 ditokomane tse latelang tse tshehetsang
038_0552 sera
038_0553 john von neumann
038_0554 late twentieth centuryodowska curie
038_0555 received mixed reviews
038_0557 quantum field theory
038_0559 real gdp growth
038_0560 guru granth sahib
038_0562 metsi a mangata hoo tse
038_0563 ya taelo ya semolao ya
038_0564 edwin
038_0566 itshebetsang puong jwalo ka bafetoledi
038_0567 sa ho ba le seabo
038_0571 afidaviti eo ho entsweng kano
038_0573 kansas state university
038_0574 north germanic languages
038_0575 e leng commission for conciliation
038_0576 hore ho teng balemi ba
038_0579 atlantic slave trade
038_0580 ditshebeletso tsa sepolesa sa afrika
038_0581 lebanese armed forces
038_0583 merero e ntlafaditsweng ya tlhahiso
038_0584 mabapi le puo tsa lefapha
038_0587 states presidential candidates
038_0588 president woodrow wilson
038_0590 ba lenaneo la ntshetsopele ya
038_0591 ho hlwaya tefo ya hao
038_0592 jewish american writers
038_0593 lebitso la seteishene sa mapolesa
038_0595 ludwig von mises
038_0598 ho kenweng ho ona ka
038_0600 la mokopi kapa lebitso la
038_0602 ya hao ya taelo ya
038_0603 central processing unit
038_0604 jwaloka ha o fetisitswe le
038_0607 ho ithuta dipuo tse ding
038_0608 ya bt di tshwanetse ho
038_0610 naha ya habo rona e
038_0611 mohahamoriti
038_0612 ya b di be tharo
038_0613 united states relations
038_0616 ya beke le beke ya
038_0623 united arab emirates
038_0625 leanong la naha la puo
038_0630 di fapana ho ya ka
038_0631 test ban treaty
038_0632 bahwebi ba sa sebedise tlwaelo
038_0633 o le moahi wa afrika
038_0635 civil class
038_0636 education
038_0639 ha jwale e amanang le
038_0640 san pedro sula
038_0641 moo o ile wa sebediswa
038_0642 ho na le ditsela tse
038_0644 ha ba hloke ho ntsha
038_0645 institjhute
038_0646 e etsa bonnete ba hore
038_0649 pele ho ngodiso ho ya
038_0650 seteisheneng sa mapolesa se haufi
038_0653 tla amohelwa jwalo ka setswantle
038_0654 american short story
038_0657 united states federal
038_0659 etsa hore a kgone ho
038_0661 qhamakwane
038_0662 hlahiswa e bongata bo bokae
038_0663 wayne state university
038_0664 le dimela mabapi le mongobo
038_0667 ho ya ka dipehelo tsa
038_0668 chinese civil war
038_0669 mekgwa le melao ya ho
038_0671 tse nyenyane le tse mahareng
038_0672 kutu
038_0676 social democratic party
038_0678 mtv video music
038_0680 ho hloleha ho etsa jwalo
038_0681 batho ba habo rona hore
038_0689 human rights record
038_0694 lengolo la bopaki la phytosanitary
038_0696 supreme court justice
038_0697 treaty organization nato
038_0698 essential fatty acids
038_0702 lebitsong la motho e mong
038_0705 ya seteraeke kapa ho notlellwa
038_0707 pope urban
039_0001 valhalla
039_0002 ya mobu bakeng sa ntshetsopele
039_0004 american film producers
039_0005 army air corps
039_0006 rala mme o romele ditokomene
039_0007 september
039_0009 harry
039_0010 october
039_0011 akhaonteng e latelang ya banka
039_0012 international atomic energy
039_0013 ho fanwa ka sona ka
039_0014 tikoloho
039_0017 national football team
039_0018 kontane kapa ka tjheke e
039_0019 ozone layer protection
039_0020 ho tla etswa ho latela
039_0021 ha eba poone e sa
039_0022 phemiti ya ho rafa kapa
039_0024 motho a tshwerweng ho yona
039_0025 kapa mokga ofe kapa ofe
039_0029 la dibokonyana tsena tse salang
039_0030 re tsebang ho sebetsa re
039_0031 ka nngwe e na le
039_0033 kopo ya setefikeiti sa ho
039_0035 rona bo tataiswe haholo ke
039_0036 united states geological
039_0037 e le hore ba tle
039_0038 hoer leano le phethahale bophelong
039_0040 convention
039_0041 o motsho le o mosweu
039_0044 mokgwa wa elektroniki kapa khaontareng
039_0045 e ne e se e
039_0046 nakwana ke ho thusa balefi
039_0048 european economic area
039_0049 diminerale kapa mahakwe a bohlokwa
039_0050 kopo ya laesense ya sekepe
039_0052 numeric character references
039_0054 ho se na motho ya
039_0055 se fana ka monyetla o
039_0056 african
039_0057 feteng dikgwedi tse tharo kapa
039_0058 etsa kopo ya ho ngodisa
039_0059 tadimilwe thibelo ya tlhodisano le
039_0064 lefapheng la kgwebo le indasteri
039_0065 ho kenngwa tshebetsong ha melao
039_0066 south asian association
039_0068 ya tshwereng thaetlele kapa monga
039_0069 junior high school
039_0070 ka mokgwa o hlakileng ho
039_0072 ba ka hodimo ho dilemo
039_0073 internet protocol suite
039_0075 hore ho na le tshebetso
039_0076 ka ho lekola tswelopele ya
039_0077 seahelo sa ho lokisa tlhapi
039_0078 a diphoofolo tsa afrika borwa
039_0080 history
039_0082 north west company
039_0084 naha ya afrika borwa kapa
039_0085 kgatello ya tshebediso ya mefuta
039_0086 makgoweng
039_0088 league baseball team
039_0089 tailor
039_0091 magnetic resonance imaging
039_0092 randfontein
039_0093 fiction television series
039_0094 ha metsi pakeng tsa dikarolwana
039_0095 central
039_0096 tsa larvae hammoho le mahe
039_0097 dingane
039_0098 protea
039_0100 palestine liberation organization
039_0101 north germanic languages
039_0102 human development index
039_0103 moscow state university
039_0104 early church fathers
039_0105 lekgotleng la dinyewe ho tla
039_0108 ntswaki
039_0109 la afrika borwa la basebetsi
039_0111 bragg
039_0112 ditaba tse amanang le molao
039_0113 kofi
039_0114 motho ya tshwereng thaetlele kapa
039_0115 mabitso a bonkgetheng bakeng sa
039_0118 le kgonahalo ya hore batho
039_0119 monroe
039_0121 ka mokgwa o sa tlwaelehang
039_0123 hospital
039_0126 mme re tshepa hore moya
039_0127 ya poso e sa risefuwang
039_0129 phethahatso ya leano lena e
039_0130 ya etsang kopo ya tokomane
039_0131 hlahisa dijothollo di phahame haholo
039_0132 high seas fleet
039_0134 haufi le wena kapa ba
039_0135 haholo ke moruo wa tsona
039_0136 tsa ka hara naha le
039_0137 se fetileng sa hlabula e
039_0139 chancellorsville
039_0140 supreme court ruled
039_0142 e ya ho lefapha la
039_0143 le ho tloswa ha matlakala
039_0144 seng feela ke ba buang
039_0145 ya selemo kapa ya sehla
039_0146 tswela pele ho sebetsa le
039_0147 ka hara naha le tla
039_0148 e na le boikarabelo ba
039_0149 pholisi ya naha ya batjha
039_0152 tla tsamaelana le molao wa
039_0153 sa witblits se neng se
039_0154 nelson mandela le thabo mbeki
039_0155 original game boy
039_0156 leng se bolelang hore ho
039_0157 butlebutle ka mokgwa o ke
039_0158 american jewish people
039_0159 mesebetsi efe ya ho mmaraka
039_0160 mmalwa le traste ditho tsohle
039_0161 united states senate
039_0162 articles including recorded
039_0164 tsela e tla ba le
039_0167 nako e telele ho tiisitse
039_0168 boqwabi
039_0169 common law jurisdictions
039_0170 o neng o rena ditherisanong
039_0171 ile ba hapa moputso wa
039_0172 manejara wa lebatowa a ananela
039_0173 efe kapa efe e boletsweng
039_0174 disebediswa tse seng di ile
039_0175 mahareng a phato ho fihlela
039_0176 grammatical
039_0177 basebeletsi ba hao le dijothollo
039_0178 ho na le mefuta e
039_0179 ho lefa molato wa hao
039_0180 good
039_0181 neelane ka kopo ya hao
039_0182 moahong wa lekgotla la naha
039_0183 le hore se sebetsa jwang
039_0184 hore ba kgone ho ba
039_0185 kenngwa ha jine ya bt
039_0186 tlhahiso ya dijothollo mobung o
039_0188 tjhelete ya hae e kenang
039_0189 boholo ba masimo a hao
039_0190 bao e leng ditho tsa
039_0191 electron transport chain
039_0196 empire
039_0197 seng le lefilwe bakeng sa
039_0199 ya mahola le dikokwanyana ka
039_0200 southwestern united states
039_0202 red blood cells
039_0203 motho ofe kapa ofe a
039_0204 naha ya afrika borwa ba
039_0207 president george
039_0208 hore menyenyetsi e mabapi le
039_0209 madison square garden
039_0210 tshebeletso ya poso e sa
039_0212 french west africa
039_0213 big bang model
039_0214 eighty years war
039_0215 setefikeiti sa boingodiso ba koloi
039_0217 le o mong o na
039_0218 seboka sa naha le lekgotla
039_0219 red blood cells
039_0220 hartbeespoort
039_0221 bona ba na le tokelo
039_0222 roman catholic priests
039_0223 poone le dinawa tsa soya
039_0224 ha re sebetsa mmoho re
039_0225 motor vehicle manufacturers
039_0226 proffesor
039_0227 senqu
039_0229 ha puo e lahlehelwa ke
039_0230 pheta tshebetso ena makgetlo a
039_0231 lokelang ho fetolelwa bafetoleding ba
039_0232 bay
039_0233 american male singers
039_0234 provenseng kang ho tla ba
039_0235 ho tshwarella nako e telele
039_0238 a ka nna a baka
039_0240 tsa taolo ka dikhemikhale le
039_0241 kgothalletsa ka matla tshebediso ya
039_0244 kapa dife tse amanang le
039_0245 batho
039_0246 ke ke wa kgona ho
039_0247 bakeng sa nako ya boholo
039_0248 e nang le share capital
039_0249 org wiki wikipedia
039_0250 e fuwa baahi ba naha
039_0252 states environmental protection
039_0253 ya tumello ya ho romela
039_0254 average family size
039_0258 ka mora kotulo ya koro
039_0259 jwalo ka ha ho hlokeha
039_0260 maseru
039_0264 potter's
039_0266 man
039_0270 keketseho thekong ya matjhaba e
039_0272 sepolesa sa aforikaborwa e lefe
039_0273 tshebedisano e kwetsweng e lefa
039_0274 ka dikopi tse tiiseleditsweng tsa
039_0276 new york yankees
039_0277 wa etsa tshebetso tsa kgwebisano
039_0280 united states army
039_0282 tshebetso ya botsebi ba saense
039_0283 tla romelwa seteisheneng sa mapolesa
039_0284 supreme allied commander
039_0286 borwa e se nang morabe
039_0294 nuclear test ban
039_0297 moahi wa naha ya afrika
039_0298 american psychiatric association
039_0299 baahi ba afrika borwa kapa
039_0300 bad
039_0301 bafta winners people
039_0303 tumello e ngotsweng fatshe e
039_0304 e leng se etsang hore
039_0305 ntshetsopele ya dipeo tsa oli
039_0308 cathode ray tube
039_0312 leqephe la pele la foromo
039_0314 formal diplomatic relations
039_0317 environmental protection agency
039_0318 gibbon
039_0321 best foreign language
039_0322 law enforcement agencies
039_0323 screen actors guild
039_0326 centrally planned economy
039_0331 saint john river
039_0332 john
039_0335 madison square garden
039_0336 ya saense ya lekgotleng la
039_0337 hore ditokomane tsa mmuso ha
039_0338 setifikeiti sa tswalo sa afrika
039_0339 moralo wa leano la puo
039_0341 lenane la batho ba e
039_0342 baheno
039_0343 primitive recursive functions
039_0345 mang ya ikemiseditseng ho nehelana
039_0346 seo o hopotseng ho se
039_0349 ya kopo ofising e haufi
039_0350 holy hand grenade
039_0351 federal trade commission
039_0352 fact date august
039_0353 united states
039_0354 ya pele e neng e
039_0355 citation needed april
039_0356 ofisi ya lefapha le haufi
039_0357 sam
039_0359 bilateral immunity agreement
039_0362 buddhism
039_0364 fifa world cup
039_0365 great lakes region
039_0366 hall
039_0369 ho se ho kenwe ho
039_0371 national science foundation
039_0376 mme hona ho tla ya
039_0380 dutch east india
039_0382 senyesemane
039_0384 saense ya tlhaho dikri diploma
039_0385 science fiction novel
039_0386 ya ho tswela pele ha
039_0387 congressional gold medal
039_0388 modern orthodox judaism
039_0389 mabapi le sehla se tlang
039_0390 randburg
039_0391 a na le dijo tse
039_0392 blood
039_0394 etsa boipiletso ho letona la
039_0395 midrand
039_0396 o ne a atisa ho
039_0397 ke ema ka pela lona
039_0398 best supporting actor
039_0399 poids et mesures
039_0400 o okina ahu
039_0401 durban
039_0402 e kenella tlase mobung le
039_0403 efe kapa efe eo ho
039_0404 ntate wa ngwana ya tswetsweng
039_0405 foreign direct investment
039_0406 sapoto jwalo ka ha e
039_0407 ho behela taelo ka thoko
039_0409 ho tloha sebopehong sa kgale
039_0410 ho ba teng ha lenaneo
039_0411 moaho wa lekgotla la naha
039_0412 ka ntle ya batlang ho
039_0413 tlhokeho ya mosebetsi wa ho
039_0415 moo ho ipehilweng ka tsela
039_0416 ha e kenyeletse hlapi ya
039_0417 lekala
039_0420 san francisco giants
039_0422 miller's
039_0423 tlhokomelo mabapi le tshebediso e
039_0424 ho tholwa ha ngwana ka
039_0426 fact date march
039_0428 baka mathata temong ya dijothollo
039_0429 ba lefapha la ditaba tsa
039_0430 tlasa merero e hlwauweng mona
039_0431 royal albert hall
039_0433 nna ya haella ka ha
039_0434 e sebetswa letsatsing leo e
039_0435 ka mokgwa o nepahetseng nakong
039_0436 ho suthisa ka ho ya
039_0437 nfc championship game
039_0438 maano a tsona ho latela
039_0441 complaints
039_0442 o lokela ho ba motho
039_0443 recent common ancestor
039_0444 ya hae ntle ho lebaka
039_0446 o na le diterekere le
039_0448 aterese ya moo o dulang
039_0450 tse ka hodimo tsa mobu
039_0452 system
039_0453 recreation
039_0455 sebetsa jwalo ka borasaense ba
039_0456 ngotsweng ya ho ngodisa ofising
039_0458 terekere le disebediswa tsa polasing
039_0459 karolong e ka tlase ya
039_0461 laesense ya boditjhaba ya ho
039_0464 dipuo tsa afrika borwa tsa
039_0465 russian civil war
039_0466 ho ntsha raporoto ya radiology
039_0468 bridgeport
039_0469 e nngwe ya tsona e
039_0470 strong nuclear force
039_0471 church turing thesis
039_0473 lebelo la ho potoloha ha
039_0476 re kopa hore o ele
039_0478 seo a lokelang ho se
039_0479 golden globe film
039_0480 mabapi le ho sebedisa poone
039_0482 banka
039_0483 motho ka mong o tlamehile
039_0486 ya thuso bakeng sa ho
039_0487 mahola e tshwanetse ho etswa
039_0488 ha eba o hloleha ho
039_0489 award winning authors
039_0490 national hockey league
039_0493 tla tshwarwa ka mokgwa o
039_0494 van der waals
039_0495 la provinse kapa la naha
039_0496 wa afrika borwa ya hlokahetseng
039_0497 mesebetsi e itseng ka ho
039_0498 united states president
039_0500 larry
039_0501 nebula award winning
039_0504 national baseball hall
039_0506 rephaboliki
039_0507 ntlafatsa polokeho le tshireletso ya
039_0508 dintlha tsena ka boraro ba
040_0001 le hore se sebetsa jwang
040_0002 mabapi le tlhahiso ya koro
040_0003 european economic area
040_0004 hall
040_0005 ya phemiti ya bodulo ba
040_0006 mokgatlo o emetseng basebeletsi tumellanong
040_0007 moo motho a fumanang kuno
040_0008 taolo ka dikhemikhale le mefuta
040_0010 leqephe la pele la foromo
040_0012 kgatello ya tshebediso ya mefuta
040_0013 tshebetso e etsang hore ho
040_0015 central
040_0016 national hockey league
040_0017 se kgethollwe ho ya ka
040_0018 french west africa
040_0019 bilateral immunity agreement
040_0020 e fumaneha ka potlako weposaeteng
040_0021 screen actors guild
040_0023 kofi
040_0024 ya ho jala dijothollo tse
040_0026 naha ya afrika borwa kapa
040_0027 poone le dinawa tsa soya
040_0030 re tsebang ho sebetsa re
040_0032 federal trade commission
040_0035 league baseball team
040_0036 tlhokomelo mabapi le tshebediso e
040_0045 be bonolo ho palama baesekele
040_0049 ka morero wa ho matlafatsa
040_0051 potter's
040_0054 indastering e batsi ya temo
040_0055 e sebetswa letsatsing leo e
040_0056 original game boy
040_0057 seo o hopotseng ho se
040_0059 saint john river
040_0061 setefikeiti sa boingodiso ba koloi
040_0062 ha eba o hloleha ho
040_0063 moralo wa leano la puo
040_0064 church turing thesis
040_0065 ha eba poone e sa
040_0067 tsa larvae hammoho le mahe
040_0068 e ntshitsweng ke bolaodi bo
040_0069 fiction television series
040_0070 mang ya ka etsang kopo
040_0071 phemiti ya ho rafa kapa
040_0072 ha re sebetsa mmoho re
040_0075 rona bo tataiswe haholo ke
040_0077 tsa tokisetso tsa lekgetho di
040_0080 primitive recursive functions
040_0081 holy hand grenade
040_0082 hospital
040_0083 ya mobu bakeng sa ntshetsopele
040_0084 mabitso a bonkgetheng bakeng sa
040_0086 harry
040_0087 supreme court ruled
040_0088 tokomane eo o batlang ho
040_0089 moahi wa naha ya afrika
040_0092 nuclear test ban
040_0097 high seas fleet
040_0099 argentina ho ya afrika borwa
040_0100 ho ntse ho na le
040_0101 palestine liberation organization
040_0103 tse ka hodimo tsa mobu
040_0104 united states president
040_0105 makgoweng
040_0106 ya selemo kapa ya sehla
040_0107 tsosoloso ya boemo ba theshiari
040_0108 hlodisana le dijothollo mabapi le
040_0109 tshebedisano e kwetsweng e lefa
040_0110 new york jets
040_0113 ka ntle ya batlang ho
040_0114 tsa lekgetho di ka phethahatswa
040_0115 o ile a fana ka
040_0116 senqu
040_0121 award winning authors
040_0123 tlasa merero e hlwauweng mona
040_0124 science fiction novel
040_0126 mamelodi
040_0127 diminerale kapa mahakwe a bohlokwa
040_0128 blood
040_0129 numeric character references
040_0130 fuwa ditokelo tsa bona tsa
040_0132 motor vehicle manufacturers
040_0133 e tla fapana ka ho
040_0134 tlhahiso ya poone tlasa nosetso
040_0137 sebedisa tlhahisoleseding e kentsweng ke
040_0138 tlamehile maoto le matsoho ho
040_0139 ho etsa hore naha ya
040_0144 hore ho na le tshebetso
040_0147 best supporting actor
040_0148 hore mobu o na le
040_0149 centrally planned economy
040_0156 le ho tempuwa ke mosebeletsi
040_0157 van der waals
040_0159 ke ke wa kgona ho
040_0160 banka
040_0161 randfontein
040_0164 ntate wa ngwana ya tswetsweng
040_0165 org wiki wikipedia
040_0166 ka mora kotulo ya koro
040_0168 le reng limited le tla
040_0169 mokgwa wa elektroniki kapa khaontareng
040_0174 golden globe film
040_0177 bill
040_0180 dipeo le dipeo tse hlahang
040_0181 khampani ya ba mmalwa e
040_0182 tumello e ngotsweng fatshe e
040_0183 september
040_0184 e nngwe ya tsona e
040_0185 chancellorsville
040_0187 dingane
040_0188 fact date august
040_0189 red blood cells
040_0191 best foreign language
040_0192 magnetic resonance imaging
040_0196 ofisi ya lefapha le haufi
040_0198 ho se ho kenwe ho
040_0199 ho tloha sebopehong sa kgale
040_0201 l cuin abbr
040_0203 ile wa rekisetswa lefapha la
040_0205 united states senate
040_0206 united states
040_0207 army air corps
040_0209 recent common ancestor
040_0212 ya saense ya lekgotleng la
040_0217 tse ding le tse ding
040_0221 bad
040_0222 system
040_0223 ile ba hapa moputso wa
040_0226 bafta winners people
040_0228 feta pele hore ho na
040_0231 cathode ray tube
040_0232 united states army
040_0236 royal albert hall
040_0237 ba lakatsang ho sebetsa jwalo
040_0238 maseru
040_0241 e le kgolo ho eo
040_0243 common law jurisdictions
040_0245 hoer leano le phethahale bophelong
040_0246 electron transport chain
040_0250 united states geological
040_0252 north west company
040_0257 jwalo ka ha ho hlokeha
040_0259 durban
040_0261 ka baka hore a lefiswe
040_0263 bridgeport
040_0265 monroe
040_0269 american psychiatric association
040_0270 foreign direct investment
040_0275 junior high school
040_0276 tlhahiso e tswetseng pele ya
040_0277 united states census
040_0278 tailor
040_0279 kamohelo ya ho sebetsa jwalo
040_0280 provenseng kang ho tla ba
040_0281 power parity comparisons
040_0283 ho suthisa ka ho ya
040_0286 sebetsa jwalo ka borasaense ba
040_0288 tsebisa ka ho o ngolla
040_0289 mme re tshepa hore moya
040_0292 san francisco giants
040_0294 mabapi le sehla se tlang
040_0296 efe kapa efe eo ho
040_0297 congressional gold medal
040_0298 hore ditokomane tsa mmuso ha
040_0299 south asian association
040_0301 tswa ho monga setsha seo
040_0305 supreme allied commander
040_0307 national science foundation
040_0308 russian civil war
040_0312 nelson mandela le thabo mbeki
040_0315 strong nuclear force
040_0316 kgopolo ya hore dihlahiswa tse
040_0317 sa witblits se neng se
040_0318 following world war
040_0319 e leng se etsang hore
040_0320 seboka sa naha le lekgotla
040_0321 tlhaho temeng ya saense ya
040_0323 roman catholic priests
040_0324 e ne e se e
040_0325 miller's
040_0326 le ho romela ditokomane ho
040_0327 good
040_0328 o na le diterekere le
040_0329 le dipehelo tse ding tse
040_0331 bao e leng ditho tsa
040_0333 pholisi ya naha ya batjha
040_0337 recreation
040_0343 borwa e se nang morabe
040_0345 disebediswa tse seng di ile
040_0347 american male singers
040_0354 ho tholwa ha ngwana ka
040_0355 mabapi le mefuta e metle
040_0356 nfc championship game
040_0358 ozone layer protection
040_0360 articles including recorded
040_0362 average family size
040_0364 motho ka mong o tlamehile
040_0365 randburg
040_0367 kopi e tiiseditsweng ya bukana
040_0369 e tswang ho registrar of
040_0370 empire
040_0371 madison square garden
040_0373 sam
040_0374 formal diplomatic relations
040_0377 midrand
040_0378 hlahisa dijothollo di phahame haholo
040_0379 kopo ya setefikeiti sa ho
040_0383 terekere le disebediswa tsa polasing
040_0384 proffesor
040_0387 kenngwa ha jine ya bt
040_0390 phethahatso ya leano lena e
040_0391 boholo ba masimo a hao
040_0393 environmental protection agency
040_0394 big bang model
040_0397 military coup
040_0399 southwestern united states
040_0402 lekala
040_0403 ka mokgwa o hlakileng ho
040_0404 fact date march
040_0405 o motsho le o mosweu
040_0407 banna le basadi ba na
040_0408 boleng ba bophelo ba batho
040_0409 tswela pele ho sebetsa le
040_0410 tadimilwe thibelo ya tlhodisano le
040_0411 man
040_0412 president george
040_0416 american jewish people
040_0417 ho se na motho ya
040_0419 free methodist church
040_0420 mme hona ho tla ya
040_0421 kgahlanong le dikgoka ho basadi
040_0422 keketseho thekong ya matjhaba e
040_0423 tswela pele ka mokgwa wa
040_0424 feteng dikgwedi tse tharo kapa
040_0425 kopo ya laesense ya sekepe
040_0426 tsitsitseng mmusong maemong le ha
040_0427 wa lekgotla la naha la
040_0429 north germanic languages
040_0430 dineo
040_0431 valhalla
040_0432 mahareng a phato ho fihlela
040_0433 ya pele e neng e
040_0434 gibbon
040_0440 history
040_0441 ya hae ntle ho lebaka
040_0443 e nang le share capital
040_0445 tse felletseng tsa moo ho
040_0448 tshebetso ya botsebi ba saense
040_0450 internet protocol suite
040_0455 ntshetsopele ya dipeo tsa oli
040_0456 buddhism
040_0457 modern orthodox judaism
040_0458 golden globe winners
040_0461 o ne a atisa ho
040_0464 o neng o rena ditherisanong
040_0465 seng feela ke ba buang
040_0474 poids et mesures
040_0475 le ho tloswa ha matlakala
040_0481 madison square garden
040_0483 laesense ya boditjhaba ya ho
040_0485 o okina ahu
040_0486 o lokela ho ba motho
040_0487 october
040_0489 television shows set
040_0491 e fuwa baahi ba naha
040_0492 citation needed april
040_0493 ho ba teng ha lenaneo
040_0496 ya ho tswela pele ha
040_0499 tlhokeho ya mosebetsi wa ho
040_0502 kopo e ka se elwe
040_0507 pimville
040_0514 ho beha leihlo tshebediso ya
040_0515 e tshwanetse ho phethwa ka
040_0517 billy
040_0518 ba thupelo ba lokela ho
040_0519 episcopal church usa
040_0521 ho tswa ho moabi ya
040_0522 le moemedi wa afrika borwa
040_0523 larry
040_0529 e na le dimojule tse
040_0535 ya phemiti ya mosebetsi ya
040_0537 ho ya ho se seng
040_0539 ancient near east
040_0540 kopo e tlameha ho felehetswa
040_0544 ba le seabo ha basadi
040_0545 united nations high
040_0546 ho tshela oli e ntjha
040_0549 king james version
040_0551 moo se sa tshwanelang se
040_0552 ho qetela la ho sebetsa
040_0554 ditletlebo
040_0556 ho isa ho tse nne
040_0561 london
040_0563 bo botjha le ho sebedisa
040_0567 nakong ya dikgwedi tsa hlabula
040_0570 dikgatiso tsa tshebediso ya dipuo
040_0573 northern mariana islands
040_0574 hubble space telescope
040_0575 lefuweng bakeng sa tokelo ya
040_0577 ya naha e tshwereng motho
040_0579 merafong le temong bakeng sa
040_0584 hang ha ho se ho
040_0585 president harry
040_0586 sebediswang wa ho phethola mobu
040_0587 ho fumana kalafo ya bongaka
040_0589 high middle ages
040_0593 general public license
040_0596 o tshwanetse ho tseba hore
040_0600 american political writers
040_0604 ya nka bolelele ba dibeke
040_0607 tshwaneleha le moruo wa tshebetso
040_0608 ho thehwa ha diyuniti tsa
040_0609 clarify date february
040_0612 re tla dula re ntse
040_0616 palestinian national authority
040_0620 e bile wa bohlokwa ho
040_0625 army occupied cypriot
040_0628 le ngodisitsweng mona afrika borwa
040_0633 samuel's
040_0634 positive real numbers
040_0637 open source initiative
040_0639 valence bond theory
040_0647 sexually transmitted diseases
040_0652 animated television series
040_0653 phasepoto ya hao ya afrika
040_0655 ho teng ba bang ba
040_0657 sa moralo wa puo ho
040_0658 ho fana ka ditshebeletso tse
040_0659 union member states
040_0660 eo e leng karolo ya
040_0661 early morning hours
040_0662 ikemetseng
040_0663 theko ya oli e tala
040_0664 dikokwanyana ka thibelo ya mefuta
040_0669 nobel prize winners
040_0670 pakeng tsa batho ba babedi
040_0674 eo ho dumellanweng ka yona
040_0676 leano le ona o hlokometse
040_0678 motherwell
040_0680 american science fiction
040_0682 di ka romelwa ofising efe
040_0684 temeng ya saense ya lekgotleng
040_0686 mabapi le tshireletso ya dijo
040_0687 e ne e le sebaka
040_0691 ho kenyelletswa le ditaba tse
040_0692 europe music
040_0694 ka moo ho ka kgonehang
040_0696 ke sesebediswa se sebetsang ka
040_0698 united states navy
040_0700 northern
040_0701 war political
040_0702 german air force
040_0703 american sign language
040_0704 national public radio
040_0708 sebokeng sa naha bakeng sa
040_0714 united states began
040_0720 dubious date april
040_0729 fact date january
040_0730 new testament canon
040_0732 le hore ho tle ho
040_0736 music awards winners
040_0737 grand
040_0741 kopanelo ya boitshwaro bo botle
040_0742 atlantic treaty organization
040_0743 jwalo ka ha ho bontshitswe
040_0745 ya tlhaselo e eso fihle
040_0747 le haebe ho boletswe ka
040_0748 ka mokgwa o hlwahlwa ho
040_0749 bethal
040_0751 hard disk drive
040_0754 western united states
040_0756 major professional sports
040_0759 average life expectancy
040_0764 borwa di tlameha ho ngodiswa
040_0768 ka puo la afrika borwa
040_0769 united states dollar
040_0770 cognitive behavioral therapy
040_0773 catherine
040_0776 rapid economic growth
040_0782 le kgahleho bophelong ba motletlebi
040_0783 ka hara naha ya afrika
040_0784 ya hao ya boitsebiso kapa
040_0787 make extensive use
040_0789 melbourne football club
040_0792 ha ho ne ho ena
040_0793 osama bin laden
040_0796 kiana
040_0798 ho feta ka moo ho
040_0799 ludwig von mises
040_0800 ho kganna ya borutehi bo
040_0802 royal dutch shell
040_0803 state university alumni
040_0804 austrian school economists
040_0806 grain sa ya tlhahiso ya
040_0808 tsa palamente di tlameha ho
040_0809 european union member
041_0002 music awards winners
041_0004 ya south african revenue service
041_0005 ditlhaloso tsa lengolo la truste
041_0006 mokopi le mohatsa hae ba
041_0014 ho itsebisa jwalo ka ntate
041_0015 sound
041_0018 reef
041_0019 tlhahisoleseding e fumanwe bukaneng ya
041_0027 lejwe
041_0028 e netefaditsweng ya bukana ya
041_0030 petroleum exporting countries
041_0031 kopo ya bodulo ba saruri
041_0035 ke notary public kapa mokhomishenara
041_0036 weposaeteng ya lefapha la temo
041_0039 tshebediso e phahameng ya sesebediswa
041_0040 national baseball hall
041_0041 a dintwa tsa ka malapeng
041_0042 aung san suu
041_0043 state university alumni
041_0048 ba thupelo ba lokela ho
041_0051 samuel's
041_0052 bontshang kamano pakeng tsa theko
041_0054 united states declaration
041_0057 a hlahisa dikgwebo tsa tsona
041_0058 mabapi le tshireletso ya dijo
041_0059 ya nka bolelele ba dibeke
041_0060 british foreign secretary
041_0061 leondale
041_0063 afrika borwa jwalo ka ha
041_0065 roman catholic archbishops
041_0069 ho mokga o laolang wa
041_0070 states district court
041_0071 hong kong island
041_0077 religious
041_0079 palestinian national authority
041_0081 tse tshwanetseng ho elwa hloko
041_0082 ho fela ho potlakileng ha
041_0096 valence bond theory
041_0097 american voice actors
041_0098 o tshwanetse ho ela hloko
041_0103 united states dollar
041_0107 monetary fund imf
041_0116 black sea coast
041_0118 cognitive behavioral therapy
041_0120 phetoho efe kapa efe e
041_0121 ba hore khopi ya foromo
041_0125 united states government
041_0126 latelang di tla kotjwa bakeng
041_0127 sexually transmitted diseases
041_0133 khopi e netefaditsweng ya bukana
041_0134 dikokwanyana ka thibelo ya mefuta
041_0136 thibelang lefu ka mora ketsahalo
041_0139 francisco bay area
041_0143 phemiti ya ditswantle ya bongaka
041_0144 american political writers
041_0148 ho kganna ya borutehi bo
041_0150 dikgopo tsa mahlaku hloohong ya
041_0151 ka moo ho ka kgonehang
041_0153 ke boikarabelo ba moahi e
041_0154 nakong ya dikgwedi tsa hlabula
041_0155 episcopal church usa
041_0156 grain sa ya tlhahiso ya
041_0157 ikopanye le ofisi ya lefapha
041_0158 e ya weposaeteng ya lefapha
041_0161 ho thehwa ha diyuniti tsa
041_0162 ke wa qobella molemi ho
041_0163 ba badudi ba saruri ba
041_0164 german air force
041_0166 di fetwa ka bohlwahlwa ke
041_0167 latela dipehelo tsa molao wa
041_0169 ka mora nako e itseng
041_0170 ba puo e tla hloka
041_0173 atlantic treaty organization
041_0176 molaotheo wa afrika borwa o
041_0177 ka hara lekgotla la naha
041_0180 president harry
041_0184 security assistance force
041_0185 catherine
041_0186 of access to information act
041_0191 eo ho dumellanweng ka yona
041_0198 aterese le nomoro ya mohala
041_0199 roodepoort
041_0204 south sandwich islands
041_0207 ke molao wa motheo ho
041_0211 bethal
041_0214 old east norse
041_0215 kenya tshebetsong mokgwa wa ho
041_0217 tshebetso tsa lekgetho la kuno
041_0223 ditletlebo
041_0226 tsa lehae provinseng eo o
041_0227 ya ho ba teng ho
041_0228 o lokela ho etsa kopo
041_0230 ya hao ya boitsebiso kapa
041_0231 re tla sebetsa ka matla
041_0232 saense ya lekgotleng la molao
041_0240 dintlha dife kapa dife tse
041_0243 functional programming languages
041_0248 diporofensi di a nahanwa boemong
041_0252 knights grand cross
041_0254 united states navy
041_0256 seo o lokelang ho se
041_0257 american sign language
041_0258 tse lokelang ho ba ka
041_0261 matsatsi a leshome eo ka
041_0262 temeng ya saense ya lekgotleng
041_0263 grand
041_0265 positive real numbers
041_0269 nobel prize winners
041_0271 ntlafatsa polokeho le tshireletso ya
041_0273 kgothalletswa ho ithuta dipuo tse
041_0275 western european countries
041_0276 mona afrika borwa e lokelwa
041_0279 islamic conference oic
041_0280 inshorense ya tse sebediswang mobung
041_0283 ho qetela la ho sebetsa
041_0284 tlosa pompo pele ba ilo
041_0285 video game developers
041_0288 sena se ka qetella ka
041_0290 make extensive use
041_0292 ho ngodisa khampani e poraefete
041_0294 tsa palamente di tlameha ho
041_0295 pele ho ka jalwa sejothollo
041_0296 marcel
041_0298 meade
041_0299 northern
041_0301 ya sebolayakokwanyana seo o se
041_0305 tumellano ya nakwana le seng
041_0307 tone ka nngwe ho tsamaisa
041_0308 grisly
041_0311 hard disk drive
041_0316 borwa di tlameha ho ngodiswa
041_0317 ya phemiti ya mosebetsi ya
041_0322 new york jets
041_0326 ya grain sa ya tlhahiso
041_0328 notable examples include
041_0331 hubble space telescope
041_0334 comic book series
041_0338 high middle ages
041_0339 nka matsatsi a fihlang ho
041_0340 sa ntsaneng a le manyane
041_0342 pimville
041_0343 wa provinse ya bophelo bo
041_0349 western united states
041_0357 ya naha e tshwereng motho
041_0358 atlantic
041_0361 asian financial crisis
041_0369 african unity oau
041_0372 hlalositsweng bakeng sa ditjhelete tse
041_0373 northern mariana islands
041_0375 united states air
041_0377 ho teng ba bang ba
041_0378 boyce
041_0379 ikemetseng
041_0383 monyakeng
041_0392 semmuso ya lekgetho e ka
041_0399 ho beha leihlo tshebediso ya
041_0402 le haebe ho boletswe ka
041_0404 bo botjha le ho sebedisa
041_0405 tlhakiso ya mahlale a puo
041_0409 pope benedict
041_0410 ya hao ka tsela ya
041_0412 ba hore o na le
041_0413 nang le tokelo ya ho
041_0417 tsa theko ya sehlahiswa le
041_0421 close air support
041_0422 game boy advance
041_0428 united states began
041_0432 major professional sports
041_0435 ancient near east
041_0436 open source initiative
041_0439 royal dutch shell
041_0440 sebediswang wa ho phethola mobu
041_0441 le hore ho tle ho
041_0443 ho bohlokwa ka ho fetisisa
041_0447 europe music
041_0451 dennilton
041_0452 average life expectancy
041_0453 fane ka nomoro ya akhauntu
041_0457 management
041_0459 international astronomical union
041_0460 early morning hours
041_0462 morao ka dilemo tse ngata
041_0463 malwetse a pustule a bakwang
041_0464 e tshwanetse ho phethwa ka
041_0467 tiisitse hore ha ho hlwahlwa
041_0468 wa diphoofolo kapa bolaodi bo
041_0470 kapa o tshwerwe tlasa mental
041_0471 persian gulf states
041_0472 rapid economic growth
041_0474 kapa badudi ba saruri ba
041_0475 imperial japanese navy
041_0476 e poraefete ya ho fihlella
041_0478 wa setjhaba lawrence mushwana o
041_0479 kansas city royals
041_0481 dubious date april
041_0483 king james version
041_0484 republican party united
041_0488 tla neha ba leloko sebaka
041_0490 billion years ago
041_0492 ho fana ka ditshebeletso tse
041_0495 o nka kilograma e le
041_0496 test ban treaty
041_0498 hore ditho tsa palamente di
041_0500 essential fatty acids
041_0501 guru granth sahib
041_0505 institjhute
041_0510 clarify date november
041_0514 winter olympic games
041_0518 ya nang le phemiti ya
041_0520 e batlang e le ntle
041_0523 kapa ofe ya batlang ho
041_0525 american short story
041_0528 real gdp growth
041_0532 chinese civil war
041_0534 le haufi le la sars
041_0537 mong le e mong ya
041_0538 kuno e phahameng ya dijothollo
041_0539 human rights record
041_0546 form hydrogen bonds
042_0004 pro football hall
042_0006 nyetsweng eo mohatsae e leng
042_0008 ya ho tsamaisa tshebeletso ya
042_0009 early morning hours
042_0013 dilemong tse ngata tse fetileng
042_0014 ho kganna ya borutehi bo
042_0016 seetebosigo
042_0018 transvala
042_0024 bang ba tlosa pompo pele
042_0028 motherwell
042_0032 hong kong island
042_0037 austrian school economists
042_0038 persian gulf states
042_0044 ferry
042_0045 fane ka nomoro ya akhauntu
042_0052 petroleum exporting countries
042_0053 new york jets
042_0054 international astronomical union
042_0055 hard disk drive
042_0057 american voice actors
042_0058 functional programming languages
042_0059 ford motor company
042_0061 united states declaration
042_0063 ya south african revenue service
042_0064 hubble space telescope
042_0067 pimville
042_0071 ba puo e tla hloka
042_0072 dintlha tsena ka boraro ba
042_0076 atlantic treaty organization
042_0077 war political
042_0079 valence bond theory
042_0080 francisco bay area
042_0081 high middle ages
042_0082 american nobel laureates
042_0087 ditlhaloso tsa lengolo la truste
042_0090 british west indies
042_0091 ho mokga o laolang wa
042_0092 game boy advance
042_0093 ice hockey team
042_0095 garrick
042_0096 merafong le temong bakeng sa
042_0099 royal dutch shell
042_0100 close air support
042_0101 roman catholic archbishops
042_0102 tse seng di ile tsa
042_0109 europe music
042_0111 ho bonahala eka ha ho
042_0116 ba thupelo ba lokela ho
042_0117 catherine
042_0124 islamic conference oic
042_0125 sa moralo wa puo ho
042_0128 ena ka sepheo sa ho
042_0131 ancient near east
042_0132 tla ba le seabo se
042_0133 nka matsatsi a fihlang ho
042_0138 mabapi le maemo a setjhaba
042_0141 security assistance force
042_0147 president harry
042_0148 osama bin laden
042_0149 grisly
042_0150 united nations high
042_0152 mokopi le mohatsa hae ba
042_0153 nobel prize winners
042_0154 fact date january
042_0156 temeng ya saense ya lekgotleng
042_0160 random access memory
042_0163 tiisitse hore ha ho hlwahlwa
042_0164 open source initiative
042_0168 ho bohlokwa ka ho fetisisa
042_0180 tse ntjha tsa ho banka
042_0182 ho itsebisa jwalo ka ntate
042_0183 clarify date march
042_0185 dilemong tse mmalwa tse fetileng
042_0187 rapid economic growth
042_0189 le tumello e ngotsweng fatshe
042_0190 bethal
042_0194 le haebe ho boletswe ka
042_0195 make extensive use
042_0196 moo e leng hore ho
042_0198 kansas city royals
042_0200 notable examples include
042_0202 united states district
042_0203 roodepoort
042_0204 baemedi ba porofensi ho ncop
042_0206 european union member
042_0207 united states began
042_0208 ke wa qobella molemi ho
042_0210 animated television series
042_0213 kenya tshebetsong mokgwa wa ho
042_0214 eldorado
042_0215 nebula award winning
042_0218 positive real numbers
042_0219 science fiction hall
042_0222 tsa diporofensi di a nahanwa
042_0226 old garden roses
042_0228 o nka kilograma e le
042_0229 george
042_0230 leondale
042_0231 nna a fetoha sebaka moo
042_0232 islamic conference oic
042_0233 army occupied cypriot
042_0235 religious
042_0236 western united states
042_0238 test ban treaty
042_0239 major professional sports
042_0241 nakong ya dikgwedi tsa hlabula
042_0244 ya makgulo bakeng sa kgwebo
042_0246 extension
042_0248 grand
042_0252 african unity oau
042_0255 liberal arts college
042_0257 afrika borwa jwalo ka ha
042_0260 polasi le nang le boleng
042_0262 states unemployment rate
042_0263 ho ngodisa setsi sa tlhahlobo
042_0264 eo e leng karolo ya
042_0265 a hlahisa dikgwebo tsa tsona
042_0266 american political writers
042_0267 gcis e ka fana ka
042_0269 ya bt papisong le mekgwa
042_0271 etsa kopo bakeng sa phemiti
042_0273 hauhelele
042_0276 petroleum exporting countries
042_0277 german air force
042_0278 ya sebolayakokwanyana seo o se
042_0279 le nngwe feela afrika borwa
042_0280 professional american football
042_0282 ha o a dumellwa ho
042_0283 leng hore ha ho hlokehe
042_0285 e poraefete ya ho fihlella
042_0286 latelang di tla kotjwa bakeng
042_0287 pele ho ka jalwa sejothollo
042_0289 ho teng ba bang ba
042_0290 ho ngodisa khampani e poraefete
042_0291 park
042_0294 dubious date april
042_0295 state university alumni
042_0296 hlahisa ditabatabelo le mehopolo ya
042_0297 tlhekelo
042_0301 dintlha dife kapa dife tse
042_0302 e na le dimojule tse
042_0303 kopo ya ho ngodisa khampani
042_0306 balemi ba ntseng ba thuthuha
042_0307 clarify date february
042_0309 ho fela ho potlakileng ha
042_0310 episcopal church usa
042_0311 united states navy
042_0314 united states dollar
042_0315 bontshang kamano pakeng tsa theko
042_0316 nang le tokelo ya ho
042_0317 states district court
042_0318 e bile wa bohlokwa ho
042_0319 bo botjha le ho sebedisa
042_0320 american television actors
042_0321 imperial japanese navy
042_0322 wa setjhaba lawrence mushwana o
042_0323 tsamaiso ya sehlopha sa boithuto
042_0326 setsheng sa bafu sa poraefete
042_0327 tshwanela ho etsa kopo ya
042_0329 sound
042_0330 pakeng tsa batho ba babedi
042_0331 rephaboliki
042_0332 video game developers
042_0333 ya phemiti ya mosebetsi ya
042_0335 khopi e netefaditsweng ya bukana
042_0336 romela ka mora nako ditlaleho
042_0337 boyce
042_0338 diporofensi di a nahanwa boemong
042_0339 kopo e ka se elwe
042_0340 efe kapa efe ya yona
042_0341 tsa palamente di tlameha ho
042_0342 le hore re kgone ho
042_0343 union member states
042_0344 ba badudi ba saruri ba
042_0347 tse haufi tsa ntshetsopele ya
042_0348 black sea coast
042_0349 sebaka moo sepudutsi se ke
042_0350 national baseball hall
042_0352 king james version
042_0353 music awards winners
042_0354 khampani kapa khampani ya ba
042_0355 le teng ka nako tsohle
042_0356 dikgeong tsa mesebetsi ya sehlopha
042_0357 ho sebedisa thaere e kgolwanyane
042_0359 western european countries
042_0360 phasepoto ya hao ya afrika
042_0361 of access to information act
042_0362 ke mang ya ka etsang
042_0369 knights grand cross
042_0371 new testament canon
042_0372 morao ka dilemo tse ngata
042_0374 american musical theatre
042_0375 tsamaiso ya mawatle le mabopo
042_0376 tshenyo e kgolo dimeleng tse
042_0378 ho fumana kalafo ya bongaka
042_0381 general public license
042_0382 dennilton
042_0383 tsa ho lefa ka mora
042_0384 theko ya sehlahiswa le bongata
042_0387 ho isa ho tse nne
042_0388 tone ka nngwe ho tsamaisa
042_0389 haufi tsa ntshetsopele ya setjhaba
042_0390 tlameha ho ba karolo ya
042_0391 melbourne football club
042_0392 hang ha ho se ho
042_0393 ho ntlafatsa boleng ba bophelo
042_0394 tshebediso e sa lokang ya
042_0396 ho tswa ho moabi ya
042_0397 ka ho etsa kopo ya
042_0398 itseng ntle le ho ama
042_0400 tshebediso e phahameng ya sesebediswa
042_0401 lengolo la tumello haeba o
042_0402 national public radio
042_0404 eo ho dumellanweng ka yona
042_0406 wa diphoofolo kapa bolaodi bo
042_0407 palestinian national authority
042_0408 samuel's
042_0409 phahameng ya poone le mmaraka
042_0412 tshwaneleha ka mora nako e
042_0414 rona ba ho lwantsha botlokotsebe
042_0415 billion years ago
042_0416 borwa di tlameha ho ngodiswa
042_0417 sefe sa tlhahlobo ya laesense
042_0420 united states air
042_0421 kapa badudi ba saruri ba
042_0425 ke sesebediswa se sebetsang ka
042_0426 e ise embasing kapa misheneng
042_0427 e ya weposaeteng ya lefapha
042_0428 american science fiction
042_0429 south sandwich islands
042_0430 e netefaditsweng ya bukana ya
042_0431 pope benedict
042_0432 ho tswela pele ho ya
042_0433 marcel
042_0434 saense ya lekgotleng la molao
042_0436 monetary fund imf
042_0440 reef
042_0442 british foreign secretary
042_0444 ditletlebo
042_0445 ho tla nne ho dule
042_0446 ba hore khopi ya foromo
042_0448 matsatsi a seng ka tlase
042_0450 leano le ona o hlokometse
042_0451 united states government
042_0453 re tla sebetsa ka matla
042_0457 tswa dinaheng tsa ka ntle
042_0458 fact date july
042_0459 mahola ke sera sa pele
042_0460 northern mariana islands
042_0461 jwalo ka ha ho bontshitswe
042_0462 ya tse romellwang ka ntle
042_0463 frank lloyd wright
042_0464 le kgahleho bophelong ba motletlebi
042_0467 sexually transmitted diseases
042_0468 average life expectancy
042_0469 puo ya bajete le setatemente
042_0471 northern
042_0473 ho ba le seabo lenaneong
042_0474 asian financial crisis
042_0475 mmala o motsho le bosweu
042_0476 e tshwanetse ho phethwa ka
042_0478 hloleha ho etsa jwalo ho
042_0481 billy
042_0482 ba le seabo ha basadi
042_0483 inshorense ya tse sebediswang mobung
042_0485 memphis
042_0487 ikemetseng
042_0488 box office success
042_0492 ba dilemo tse ka hodimo
042_0493 nakong ya matsatsi a balemi
042_0495 ya nang le phemiti ya
042_0496 clarify date november
042_0498 bahwebi ba sa sebedise tlwaelo
042_0499 eo ba nang le yona
042_0500 chinese civil war
042_0502 e batlang e le ntle
042_0505 section e ka fana ka
042_0506 winter olympic games
042_0507 jewish american writers
042_0508 la mokopi kapa lebitso la
042_0509 international criminal court
042_0510 american musical theatre
042_0511 kuno e phahameng ya dijothollo
042_0513 human rights record
042_0514 john von neumann
042_0516 arizona state university
042_0517 atlantic slave trade
042_0520 wayne state university
042_0522 essential fatty acids
042_0523 a se ke a kena
042_0524 tekolo botjha ya ditlwaelo le
042_0525 sera
042_0527 na le tshepo ya hore
042_0529 real gdp growth
042_0532 lengolo le tswang ho setho
042_0533 american short story
042_0534 halleck
042_0535 le haufi le la sars
042_0536 ba mmalwa le traste ditho
042_0538 e etsa bonnete ba hore
042_0539 guru granth sahib
042_0540 form hydrogen bonds
042_0541 institjhute
042_0543 ya tjhelete le meralo ya
042_0545 hore ditho tsa palamente di
042_0547 naha ya habo rona e
042_0548 afidaviti eo ho entsweng kano
042_0550 kansas state university
042_0551 internal combustion engine
042_0552 le ka baka la tshebedisano
042_0553 o le moahi wa afrika
042_0554 chinese communist party
043_0002 batho
043_0004 proffesor
043_0005 early church fathers
043_0006 motor vehicle manufacturers
043_0007 argentina ho ya afrika borwa
043_0009 hoer leano le phethahale bophelong
043_0012 ho se ho kenwe ho
043_0014 african
043_0017 articles including recorded
043_0019 southwestern united states
043_0020 international atomic energy
043_0021 sa witblits se neng se
043_0023 di tswela pele ho sa
043_0024 electron transport chain
043_0025 law enforcement agencies
043_0028 potter's
043_0033 congressional gold medal
043_0038 ha eba o hloleha ho
043_0051 american jewish people
043_0053 la ditaba tsa lehae hore
043_0055 formal diplomatic relations
043_0057 common law jurisdictions
043_0067 protea
043_0069 ka mokgwa o hlakileng ho
043_0071 strong nuclear force
043_0075 fact date august
043_0078 tlhokeho ya mosebetsi wa ho
043_0080 supreme court ruled
043_0082 saint john river
043_0085 mokgatlo o emetseng basebeletsi tumellanong
043_0091 states environmental protection
043_0096 gibbon
043_0097 nuclear test ban
043_0103 new york yankees
043_0105 army air corps
043_0108 federal trade commission
043_0111 pholisi ya naha ya batjha
043_0113 tadimilwe thibelo ya tlhodisano le
043_0114 red blood cells
043_0115 modern orthodox judaism
043_0120 american film producers
043_0122 golden globe winners
043_0127 buddhism
043_0128 junior high school
043_0137 ba bangata ba ile ba
043_0139 numeric character references
043_0141 armoured fighting vehicles
043_0151 org wiki wikipedia
043_0154 tsa larvae hammoho le mahe
043_0155 e nang le share capital
043_0156 national hockey league
043_0158 ding le tse ding tse
043_0159 cathode ray tube
043_0161 united states president
043_0165 bilateral immunity agreement
043_0167 chancellorsville
043_0168 human development index
043_0169 bill
043_0174 primitive recursive functions
043_0178 maseru
043_0179 tikoloho
043_0181 bafta winners people
043_0184 le o mong o na
043_0189 royal albert hall
043_0192 leqephe la pele la foromo
043_0195 ntate wa ngwana ya tswetsweng
043_0207 ntswaki
043_0208 sam
043_0210 mesebetsi efe ya ho mmaraka
043_0214 russian civil war
043_0215 ha eba kere e potolohisang
043_0220 free methodist church
043_0221 fifa world cup
043_0226 eighty years war
043_0231 convention
043_0232 ho na le mefuta e
043_0233 ozone layer protection
043_0234 united states geological
043_0239 american male singers
043_0245 great lakes region
043_0247 following world war
043_0257 san francisco giants
043_0260 best foreign language
043_0273 history
043_0277 power parity comparisons
043_0285 kopo ya setefikeiti sa ho
043_0286 l cuin abbr
043_0294 ka mokgwa o sa tlwaelehang
043_0297 jwalo ka ha ho hlokeha
043_0304 ka ba ka mokgwa wa
043_0307 nelson mandela le thabo mbeki
043_0310 good
043_0320 red blood cells
043_0322 hodimo ho moo ba tla
043_0334 original game boy
043_0342 senqu
043_0345 october
043_0346 united states census
043_0347 magnetic resonance imaging
043_0348 man
043_0350 hospital
043_0354 north germanic languages
043_0356 nfc championship game
043_0357 le ho tempuwa ke mosebeletsi
043_0359 hall
043_0360 valhalla
043_0364 french west africa
043_0372 tswela pele ho sebetsa le
043_0376 high seas fleet
043_0383 foreign direct investment
043_0389 randfontein
043_0392 screen actors guild
043_0394 mokgwa wa elektroniki kapa khaontareng
043_0398 nakwana ke ho thusa balefi
043_0405 national football team
043_0412 environmental protection agency
043_0413 system
043_0419 miller's
043_0423 recreation
043_0424 boqwabi
043_0425 citation needed april
043_0427 holy hand grenade
043_0428 tse felletseng tsa moo ho
043_0432 mesebetsi e itseng ka ho
043_0435 hlahisa dijothollo di phahame haholo
043_0445 golden globe film
043_0448 e tswang ho registrar of
043_0450 average family size
043_0452 court ha e le traste
043_0453 seng le lefilwe bakeng sa
043_0454 military coup
043_0458 di be tharo mme o
043_0459 poids et mesures
043_0461 internet protocol suite
043_0469 van der waals
043_0477 complaints
043_0479 le ho romela ditokomane ho
043_0485 ke ke wa kgona ho
043_0488 bridgeport
043_0490 monroe
043_0493 north west company
043_0494 church turing thesis
043_0497 award winning authors
043_0498 e sebetswa letsatsing leo e
043_0499 taolo ka dikhemikhale le mefuta
043_0510 united states district
043_0516 liberal arts college
043_0521 national baseball hall
044_0002 general public license
044_0003 kopo ya phemiti ya phapanyetsano
044_0005 game boy advance
044_0008 major professional sports
044_0014 positive real numbers
044_0015 valence bond theory
044_0019 nebula award winning
044_0027 mane ho isa ho a
044_0031 tsebiso ya lefapha le molaong
044_0036 ya ho ba teng ho
044_0038 mabapi le maemo a setjhaba
044_0046 grisly
044_0050 make extensive use
044_0052 ke wa qobella molemi ho
044_0053 western united states
044_0055 ho fafatsa kgahlanong le mahola
044_0057 leondale
044_0060 king james version
044_0063 bo botjha le ho sebedisa
044_0064 comic book series
044_0065 bethal
044_0067 rapid economic growth
044_0068 pimville
044_0074 european union member
044_0076 ancient near east
044_0078 notable examples include
044_0079 billy
044_0087 episcopal church usa
044_0088 islamic conference oic
044_0089 new york jets
044_0095 di ka romelwa ofising efe
044_0098 new testament canon
044_0101 francisco bay area
044_0102 fact date january
044_0107 early morning hours
044_0110 rephaboliki
044_0120 states unemployment rate
044_0122 ba thupelo ba lokela ho
044_0127 hubble space telescope
044_0129 american television actors
044_0130 le ho haha setjhaba sa
044_0133 international astronomical union
044_0136 leo mobu o leng ho
044_0140 hong kong island
044_0144 tlameha ho felehetsa kopo ka
044_0145 latelang di tla kotjwa bakeng
044_0152 fane ka nomoro ya akhauntu
044_0155 ya dipuo tsa motswalla tse
044_0157 nka matsatsi a fihlang ho
044_0161 kiana
044_0162 republican party united
044_0165 united states dollar
044_0167 fihlwang ho yona ya mohlahisi
044_0168 motherwell
044_0169 asian financial crisis
044_0173 lefuweng bakeng sa tokelo ya
044_0174 ho kganna ya borutehi bo
044_0175 ho ba motswadi wa letholwa
044_0183 security assistance force
044_0184 kopo ya bodulo ba saruri
044_0187 american science fiction
044_0189 ditlhaloso tsa lengolo la truste
044_0190 royal dutch shell
044_0200 union member states
044_0203 united states government
044_0204 american sign language
044_0205 sa moralo wa puo ho
044_0207 e poraefete ya ho fihlella
044_0208 haufi tsa ntshetsopele ya setjhaba
044_0211 united states declaration
044_0213 aung san suu
044_0215 kopo e tlameha ho felehetswa
044_0216 melbourne football club
044_0218 ya south african revenue service
044_0220 imperial japanese navy
044_0221 western european countries
044_0222 ho fana ka beile le
044_0231 billion years ago
044_0232 american political writers
044_0235 pakeng tsa batho ba babedi
044_0240 tsa palamente di tlameha ho
044_0244 phahameng ya poone le mmaraka
044_0246 le haebe ho boletswe ka
044_0247 dennilton
044_0251 dilemong tse mmalwa tse fetileng
044_0254 united states district
044_0256 motho ofe kapa ofe eo
044_0259 south sandwich islands
044_0261 dubious date april
044_0262 american musical theatre
044_0264 europe music
044_0265 science fiction hall
044_0270 states district court
044_0271 ludwig von mises
044_0272 persian gulf states
044_0278 african unity oau
044_0279 le nngwe feela afrika borwa
044_0280 ya tlhaselo e eso fihle
044_0281 nna a fetoha sebaka moo
044_0287 united states began
044_0294 memphis
044_0296 itseng ntle le ho ama
044_0298 ya bt papisong le mekgwa
044_0300 video game developers
044_0304 national public radio
044_0309 professional american football
044_0311 random access memory
044_0313 roodepoort
044_0323 samuel's
044_0325 tlameha ho ba karolo ya
044_0326 british foreign secretary
044_0330 ho etsa kopo ya tumello
044_0334 mokopi le mohatsa hae ba
044_0335 catherine
044_0336 mang le a mang a
044_0343 clarify date february
044_0344 moo e leng hore ho
044_0348 liberal arts college
044_0352 mekgatlo e adimanang ka tjhelete
044_0354 e ya weposaeteng ya lefapha
044_0355 state university alumni
044_0358 ke molao wa motheo ho
044_0360 national baseball hall
044_0362 weposaeteng ya lefapha la temo
044_0365 tsa fuwa maemo a tlase
044_0366 wa diphoofolo kapa bolaodi bo
044_0367 borwa di tlameha ho ngodiswa
044_0371 ya hao e tla lekolwa
044_0372 dintlha dife kapa dife tse
044_0373 black sea coast
044_0375 kgannelang tlhaselong e eketsehang ya
044_0377 inshorense ya tse sebediswang mobung
044_0380 tse ka hodimo ho tse
044_0383 morao ka dilemo tse ngata
044_0385 hard disk drive
044_0386 ho thehwa ha diyuniti tsa
044_0390 frank lloyd wright
044_0395 tone ka nngwe ho tsamaisa
044_0396 ho ngodisa setsi sa tlhahlobo
044_0398 petroleum exporting countries
044_0401 e na le dimojule tse
044_0406 kenya tshebetsong mokgwa wa ho
044_0409 a hlahisa dikgwebo tsa tsona
044_0412 le hore ho tle ho
044_0415 ka mokgwa o hlwahlwa ho
044_0416 baemedi ba porofensi ho ncop
044_0418 ka puo la afrika borwa
044_0419 meade
044_0421 phetoho efe kapa efe e
044_0423 poone ya selelekela mabapi le
044_0425 theko ya sehlahiswa le bongata
044_0426 theko ya oli e tala
044_0428 marcel
044_0429 united states navy
044_0431 animated television series
044_0432 music awards winners
044_0433 toka le ntshetsopele ya molao
044_0435 ho bohlokwa ka ho fetisisa
044_0439 phemiti ya ditswantle ya bongaka
044_0440 average life expectancy
044_0442 hauhelele
044_0444 foromo ya kopo ka dikopi
044_0446 american nobel laureates
044_0448 ya naha le ya matjhaba
044_0449 transvala
044_0451 kansas city royals
044_0457 northern
044_0458 dikgeong tsa mesebetsi ya sehlopha
044_0462 dintlha tsena ka boraro ba
044_0463 united states air
044_0465 lokela ho lefa lekgetho la
044_0467 ho tswa ho moabi ya
044_0469 ho itsebisa jwalo ka ntate
044_0472 high middle ages
044_0474 british west indies
044_0477 le kgahleho bophelong ba motletlebi
044_0478 army occupied cypriot
044_0480 palestinian national authority
044_0481 sexually transmitted diseases
044_0483 california state university
044_0485 of access to information act
044_0486 kapa o tshwerwe tlasa mental
044_0492 eldorado
044_0494 functional programming languages
044_0497 pope benedict
044_0498 leng hore ha ho hlokehe
044_0499 austrian school economists
044_0500 molaotheo wa afrika borwa o
044_0501 winter olympic games
044_0504 e batlang e le ntle
044_0507 john von neumann
044_0508 essential fatty acids
044_0511 clarify date november
044_0513 ya nang le phemiti ya
044_0516 mafelong a kgwedi e nngwe
044_0517 american short story
044_0519 ludwig von mises
044_0522 keketseho ya boleng ba masimo
044_0527 ba dilemo tse ka hodimo
044_0528 ho ya ka dipehelo tsa
044_0529 real gdp growth
044_0530 ya hao setatementeng sa banka
044_0532 n g rjuna
044_0533 lengolo le tswang ho setho
044_0534 guru granth sahib
045_0003 motherwell
045_0004 rephaboliki
045_0006 functional programming languages
045_0007 states district court
045_0010 itseng ntle le ho ama
045_0013 le tumello e ngotsweng fatshe
045_0025 united states air
045_0027 old east norse
045_0029 republican party united
045_0030 tse haufi tsa ntshetsopele ya
045_0031 eo ho dumellanweng ka yona
045_0033 american television actors
045_0037 positive real numbers
045_0038 dennilton
045_0039 ho itsebisa jwalo ka ntate
045_0044 batlang ho fumana boahi ba
045_0047 tshwanela ho etsa kopo ya
045_0049 tsa lehae provinseng eo o
045_0051 religious
045_0055 ho qetela la ho sebetsa
045_0056 petroleum exporting countries
045_0058 hubble space telescope
045_0060 ho tshela oli e ntjha
045_0063 ya grain sa ya tlhahiso
045_0064 o ne o sebediswa ke
045_0065 ice hockey team
045_0066 etsa kopo bakeng sa phemiti
045_0067 game boy advance
045_0068 united states began
045_0069 box office success
045_0070 ke boikarabelo ba moahi e
045_0071 western united states
045_0073 reef
045_0075 united states declaration
045_0077 leondale
045_0078 kapa ho hloka bokgoni ba
045_0079 aterese le nomoro ya mohala
045_0081 king james version
045_0083 union member states
045_0085 european union member
045_0086 tswa dinaheng tsa ka ntle
045_0087 ha eba poone e iswa
045_0088 hlahisa ditabatabelo le mehopolo ya
045_0089 dilemong tse mmalwa tse fetileng
045_0090 ho ngodisa setsi sa tlhahlobo
045_0091 ya ditaba tsa lehae kapa
045_0092 fane ka nomoro ya akhauntu
045_0094 billy
045_0095 ya ho ba teng ho
045_0096 clarify date march
045_0098 united states dollar
045_0099 islamic conference oic
045_0100 islamic conference oic
045_0101 hloka tumello e ikgethang e
045_0102 ho thehwa ha diyuniti tsa
045_0108 ke molao wa motheo ho
045_0114 tse ka hodimo ho tse
045_0119 atlantic treaty organization
045_0122 ho etsa diteko tsa hiv
045_0123 notable examples include
045_0127 ya naha e tshwereng motho
045_0132 ho tswa ho moabi ya
045_0133 random access memory
045_0134 di fetwa ka bohlwahlwa ke
045_0142 osama bin laden
045_0148 le nngwe feela afrika borwa
045_0149 tsa palamente di tlameha ho
045_0153 balemi ba ntseng ba thuthuha
045_0154 major professional sports
045_0157 ho bonahala eka ha ho
045_0160 imperial japanese navy
045_0161 ho etsa kopo ya tumello
045_0171 meade
045_0172 garrick
045_0175 khopi e netefaditsweng ya bukana
045_0177 a sa siya wili e
045_0178 sa ntsaneng a le manyane
045_0179 saense ya lekgotleng la molao
045_0182 ka puo ya kgetho ya
045_0185 african unity oau
045_0192 hang ha ho se ho
045_0193 early morning hours
045_0198 le katleho ya sepheo sa
045_0201 sebokeng sa naha bakeng sa
045_0202 mokopi le mohatsa hae ba
045_0208 south sandwich islands
045_0209 asian financial crisis
045_0212 ancient near east
045_0215 ka moo ho ka kgonehang
045_0216 tlameha ho felehetsa kopo ka
045_0220 rapid economic growth
045_0221 pro football hall
045_0222 dubious date april
045_0223 ba thupelo ba lokela ho
045_0224 melbourne football club
045_0226 marcel
045_0228 animated television series
045_0229 nka matsatsi a fihlang ho
045_0230 ferry
045_0232 roman catholic archbishops
045_0238 royal dutch shell
045_0241 seo o lokelang ho se
045_0243 sa moralo wa puo ho
045_0246 kopo e tlameha ho felehetswa
045_0247 hard disk drive
045_0248 ditletlebo
045_0251 united states district
045_0260 bakeng la tsebo ya mosebetsi
045_0262 re tla dula re ntse
045_0263 wa setjhaba lawrence mushwana o
045_0266 ho sebedisa thaere e kgolwanyane
045_0267 american political writers
045_0269 mariha e hloka nako e
045_0272 ya bt papisong le mekgwa
045_0273 park
045_0280 leng hore ha ho hlokehe
045_0284 ka hara naha ya afrika
045_0285 fact date january
045_0286 national public radio
045_0287 sebaka moo sepudutsi se ke
045_0289 ha o a dumellwa ho
045_0292 northern
045_0293 high middle ages
045_0294 phasepoto ya hao ya afrika
045_0296 francisco bay area
045_0300 samuel's
045_0301 tjhelete eo e seng ya
045_0303 inshorense ya tse sebediswang mobung
045_0305 comic book series
045_0306 ya boitsebiso kapa setifikeiti sa
045_0313 ho bohlokwa ka ho fetisisa
045_0318 diporofensi di a nahanwa boemong
045_0320 british west indies
045_0321 average life expectancy
045_0323 ya south african revenue service
045_0325 austrian school economists
045_0326 pimville
045_0329 romela ka mora nako ditlaleho
045_0331 boston red sox
045_0332 kopo e ka se elwe
045_0334 lekala la thuto le thupelo
045_0335 europe music
045_0336 e ise embasing kapa misheneng
045_0337 army occupied cypriot
045_0339 ya hao e tla lekolwa
045_0342 re tla sebetsa ka matla
045_0344 ludwig von mises
045_0346 western european countries
045_0349 ho fela ho potlakileng ha
045_0351 moya wa ho etsa dintho
045_0352 hong kong island
045_0353 bethal
045_0355 molaotheo wa afrika borwa o
045_0356 new york jets
045_0357 international astronomical union
045_0358 ke wa qobella molemi ho
045_0359 petroleum exporting countries
045_0360 dikgopo tsa mahlaku hloohong ya
045_0361 united states government
045_0362 tlhekelo ka letona la bonono
045_0363 american nobel laureates
045_0364 eldorado
045_0365 episcopal church usa
045_0368 ho feta ka moo ho
045_0369 pakeng tsa batho ba babedi
045_0370 grisly
045_0376 ho sebedisa lebitso le molaong
045_0377 sefe sa tlhahlobo ya laesense
045_0378 bahlokomedi ba bona ba molao
045_0379 state university alumni
045_0380 war political
045_0381 moahi wa afrika borwa kapa
045_0382 tsa mokgatlo kapa mokgatlo wa
045_0383 pope benedict
045_0384 la ho qala la nakwana
045_0389 ho kganna ya borutehi bo
045_0390 a hlahisa dikgwebo tsa tsona
045_0399 lokela ho lefa lekgetho la
045_0401 clarify date february
045_0402 lengolo la tumello haeba o
045_0406 boyce
045_0407 ya ba mmalwa e ngodisitsweng
045_0408 mme ho tla ya ka
045_0414 sexually transmitted diseases
045_0415 nyetseng nyetsweng eo mohatsae e
045_0416 tshwaneleha ka mora nako e
045_0419 american free trade
045_0420 old garden roses
045_0422 professional american football
045_0423 nebula award winning
045_0427 theko ya oli e tala
045_0436 ka modulasetulo wa sehlopha sa
045_0437 kansas city royals
045_0442 persian gulf states
045_0446 security assistance force
045_0447 american science fiction
045_0453 hloleha ho etsa jwalo ho
045_0454 fihlwang ho yona ya mohlahisi
045_0455 liberal arts college
045_0456 ford motor company
045_0457 o tshwanetse ho ela hloko
045_0459 video game developers
045_0460 ka hara lekgotla la naha
045_0462 dilemong tse ngata tse fetileng
045_0463 morao ka dilemo tse ngata
045_0464 western united states
045_0465 american musical theatre
045_0467 catherine
045_0468 make extensive use
045_0469 o tshwanetse ho tseba hore
045_0471 mekgatlo e adimanang ka tjhelete
045_0477 ba ratang naha ya habo
045_0480 states unemployment rate
045_0481 bo botjha le ho sebedisa
045_0482 of access to information act
045_0484 ditlhaloso tsa lengolo la truste
045_0485 monetary fund imf
045_0488 united nations high
045_0491 tshebetso tsa lekgetho la kuno
045_0492 lejwe
045_0493 borwa di tlameha ho ngodiswa
045_0494 palestinian national authority
045_0495 northern mariana islands
045_0496 music awards winners
045_0497 united states navy
045_0498 british foreign secretary
045_0500 yona ha feela le tla
045_0502 sera
045_0503 hore ditho tsa palamente di
045_0504 essential fatty acids
045_0506 real gdp growth
045_0510 ka mehla bala leibole ya
045_0512 n g rjuna
045_0513 winter olympic games
045_0515 lengolo le tswang ho setho
045_0516 american musical theatre
046_0004 british west indies
046_0006 samuel's
046_0008 valence bond theory
046_0015 war political
046_0016 united states dollar
046_0018 ka tsela efe kapa efe
046_0020 morao ka dilemo tse ngata
046_0022 osama bin laden
046_0023 mariha e hloka nako e
046_0024 ice hockey team
046_0025 tshwaneleha le moruo wa tshebetso
046_0026 eo ho dumellanweng ka yona
046_0029 aterese le nomoro ya mohala
046_0030 afrika borwa jwalo ka ha
046_0032 state university alumni
046_0033 international astronomical union
046_0034 theko ya sehlahiswa le bongata
046_0035 functional programming languages
046_0036 british foreign secretary
046_0037 saense ya lekgotleng la molao
046_0038 ho fana ka beile le
046_0039 nna a fetoha sebaka moo
046_0040 ya bt papisong le mekgwa
046_0043 tsamaiso ya mawatle le mabopo
046_0045 lefatshe la polasi le nang
046_0046 sa moralo wa puo ho
046_0048 liberal arts college
046_0050 pro football hall
046_0051 fane ka nomoro ya akhauntu
046_0052 aung san suu
046_0053 president harry
046_0055 wa diphoofolo kapa bolaodi bo
046_0056 o tshwanetse ho tseba hore
046_0059 di ka romelwa ofising efe
046_0060 wa setjhaba lawrence mushwana o
046_0061 leondale
046_0062 kopo ya bodulo ba saruri
046_0064 imperial japanese navy
046_0065 pimville
046_0069 open source initiative
046_0071 religious
046_0072 leng la mahlakore ana a
046_0073 ya foromo ena e fuwe
046_0080 tsa lehae provinseng eo o
046_0081 nobel prize winners
046_0082 moo se sa tshwanelang se
046_0083 petroleum exporting countries
046_0084 california state university
046_0085 di fetwa ka bohlwahlwa ke
046_0088 kopanelo ya boitshwaro bo botle
046_0089 ba hore khopi ya foromo
046_0091 union member states
046_0093 inshorense ya tse sebediswang mobung
046_0094 european union member
046_0095 e netefaditsweng ya bukana ya
046_0097 knights grand cross
046_0100 di ka nna tsa fetoha
046_0102 atlantic
046_0103 haufi tsa ntshetsopele ya setjhaba
046_0104 early morning hours
046_0105 kgothalletswa ho ithuta dipuo tse
046_0107 tse seng di ile tsa
046_0109 reef
046_0111 ba le seabo ha basadi
046_0112 khampani kapa khampani ya ba
046_0113 polasi le nang le boleng
046_0114 new york jets
046_0117 ho ba motswadi wa letholwa
046_0118 ya tlhahisoleseding tshebetsong ya toka
046_0119 old garden roses
046_0120 ho ngodisa khampani e poraefete
046_0121 african unity oau
046_0123 ho tswela pele ho ya
046_0124 tshenyo e kgolo dimeleng tse
046_0125 hauhelele
046_0126 tshwaneleha ka mora nako e
046_0127 clarify date february
046_0129 seo o lokelang ho se
046_0130 fihlwang ho yona ya mohlahisi
046_0133 united states declaration
046_0136 nyetseng nyetsweng eo mohatsae e
046_0137 united states air
046_0138 temeng ya saense ya lekgotleng
046_0141 monetary fund imf
046_0142 ikemetseng
046_0144 monyakeng
046_0145 e tshwanetse ho phethwa ka
046_0146 merafong le temong bakeng sa
046_0149 station
046_0150 e ya weposaeteng ya lefapha
046_0152 fact date january
046_0153 ikopanye le ofisi ya lefapha
046_0154 roodepoort
046_0156 eldorado
046_0157 american voice actors
046_0159 cognitive behavioral therapy
046_0160 professional american football
046_0161 hard disk drive
046_0162 comic book series
046_0164 american free trade
046_0166 moo e leng hore ho
046_0167 clarify date march
046_0168 american science fiction
046_0169 phasepoto ya hao ya afrika
046_0170 hubble space telescope
046_0172 motho ofe kapa ofe eo
046_0173 average life expectancy
046_0174 baemedi ba porofensi ho ncop
046_0176 make extensive use
046_0178 king james version
046_0180 united states district
046_0181 khopi ya rasiti e saennweng
046_0182 nyetsweng eo mohatsae e leng
046_0183 garrick
046_0185 weposaeteng ya lefapha la temo
046_0186 e bile wa bohlokwa ho
046_0189 south sandwich islands
046_0190 francisco bay area
046_0191 ke mang ya ka etsang
046_0193 ka mora nako e itseng
046_0197 motherwell
046_0199 american musical theatre
046_0200 botoloki ka mohala tsa afrika
046_0201 latela dipehelo tsa molao wa
046_0202 black sea coast
046_0203 moya wa ho etsa dintho
046_0205 mabapi le maemo a setjhaba
046_0209 northern mariana islands
046_0211 islamic conference oic
046_0212 management
046_0214 northern
046_0216 grisly
046_0219 video game developers
046_0220 ditlhaloso tsa lengolo la truste
046_0221 ha eba poone e iswa
046_0223 frank lloyd wright
046_0228 ho ya ka palohare ya
046_0229 general public license
046_0230 ya south african revenue service
046_0231 box office success
046_0232 le ngodisitsweng mona afrika borwa
046_0235 western european countries
046_0236 tumellano ya nakwana le seng
046_0237 ho tswa ho moabi ya
046_0238 ofisi ya iss ya afrika
046_0239 music awards winners
046_0240 lefuweng bakeng sa tokelo ya
046_0242 leng hore ha ho hlokehe
046_0244 united states began
046_0249 west
046_0250 ba ratang naha ya habo
046_0251 ho sebedisa lebitso le molaong
046_0252 ba thupelo ba lokela ho
046_0253 dintlha tsena ka boraro ba
046_0258 palestinian national authority
046_0260 pakeng tsa batho ba babedi
046_0261 lengolo la tumello haeba o
046_0262 tse ikgethileng tsa kgatello di
046_0263 republican party united
046_0264 austrian school economists
046_0265 europe music
046_0266 kiana
046_0271 tone ka nngwe ho tsamaisa
046_0273 hloka bokgoni ba ho phetha
046_0275 ho feta ka moo ho
046_0276 tsa diporofensi di a nahanwa
046_0281 wa provinse ya bophelo bo
046_0283 wa ho qala wa leloko
046_0284 united nations high
046_0285 le hore re kgone ho
046_0286 notable examples include
046_0289 marcel
046_0290 tswa dinaheng tsa ka ntle
046_0291 petroleum exporting countries
046_0293 e ise embasing kapa misheneng
046_0294 le tsela e telele eo
046_0295 tjhelete eo e seng ya
046_0297 high middle ages
046_0298 tlameha ho balwa ka botebo
046_0299 tse lokelang ho ba ka
046_0301 close air support
046_0302 positive real numbers
046_0303 sebediswang wa ho phethola mobu
046_0304 sound
046_0305 tse haufi tsa ntshetsopele ya
046_0306 ke wa qobella molemi ho
046_0307 bakeng la tsebo ya mosebetsi
046_0309 melbourne football club
046_0310 mme ho tla ya ka
046_0311 ho fela ho potlakileng ha
046_0312 park
046_0313 lokela ho lefa lekgetho la
046_0315 ka modulasetulo wa sehlopha sa
046_0318 le moemedi wa afrika borwa
046_0319 new testament canon
046_0321 boyce
046_0322 states district court
046_0323 ya tse romellwang ka ntle
046_0324 ho thehwa ha diyuniti tsa
046_0325 tlhahisoleseding e fumanwe bukaneng ya
046_0326 tlhekelo
046_0327 atlantic treaty organization
046_0328 hong kong island
046_0329 kapa badudi ba saruri ba
046_0333 animated television series
046_0334 di ka qojwang ka teng
046_0336 batshwaruwa
046_0339 dilemong tse mmalwa tse fetileng
046_0343 dikgeong tsa mesebetsi ya sehlopha
046_0344 dikgatiso tsa tshebediso ya dipuo
046_0345 ke molao wa motheo ho
046_0346 kgannelang tlhaselong e eketsehang ya
046_0347 jwalo ka ha ho bontshitswe
046_0348 ntle mofuta wa hlapi o
046_0349 ho isa ho tse nne
046_0351 american sign language
046_0353 ba teng ka dipuo tse
046_0355 american nobel laureates
046_0356 efe kapa efe ya yona
046_0358 dennilton
046_0359 national baseball hall
046_0361 motheo
046_0362 nebula award winning
046_0363 ancient near east
046_0367 semmuso ya lekgetho e ka
046_0368 larry
046_0369 ho tla nne ho dule
046_0370 catherine
046_0371 ho kenyelletswa le ditaba tse
046_0374 transvala
046_0375 thibelang lefu ka mora ketsahalo
046_0376 tse tshwanetseng ho elwa hloko
046_0377 balemi ba ntseng ba thuthuha
046_0380 tla ba le seabo se
046_0383 pele ho ka jalwa sejothollo
046_0384 asian financial crisis
046_0385 roman catholic archbishops
046_0386 toka
046_0387 billion years ago
046_0388 dubious date april
046_0389 lekala la thuto le thupelo
046_0391 e felletseng ya kgatiso tsa
046_0392 ho tshela oli e ntjha
046_0394 army occupied cypriot
046_0395 ferry
046_0397 tsa tlhahlobo tse molaong mme
046_0398 billy
046_0399 tsa palamente di tlameha ho
046_0400 dintho ka mokgwa o sa
046_0401 ford motor company
046_0403 letowana
046_0405 persian gulf states
046_0407 ho ya ho se seng
046_0409 dilemong tse ngata tse fetileng
046_0410 phetoho efe kapa efe e
046_0413 boston red sox
046_0414 grand
046_0416 diporofensi di a nahanwa boemong
046_0420 sexually transmitted diseases
046_0421 bethal
046_0422 ho bonahala eka ha ho
046_0423 hang ha ho se ho
046_0424 united states government
046_0425 of access to information act
046_0426 tsebiso ya lefapha le molaong
046_0427 ho ngodisa jwalo ka setsebi
046_0428 fact date july
046_0435 sa ntsaneng a le manyane
046_0437 ho teng ba bang ba
046_0438 o tshwanetse ho ela hloko
046_0440 ho ngodisa setsi sa tlhahlobo
046_0443 mmala o motsho le bosweu
046_0444 ho etsa kopo ya tumello
046_0445 ho qetela la ho sebetsa
046_0446 old east norse
046_0447 dikokwanyana ka thibelo ya mefuta
046_0450 kopo ya hao e se
046_0452 kansas city royals
046_0453 tshebediso e phahameng ya sesebediswa
046_0454 la ho qala la nakwana
046_0455 ya ho ba teng ho
046_0456 ho etsa diteko tsa hiv
046_0458 german air force
046_0461 test ban treaty
046_0462 ramolodi
046_0463 sa dikopo moo bukana ya
046_0465 major professional sports
046_0467 pope benedict
046_0468 episcopal church usa
046_0469 game boy advance
046_0470 dikgopo tsa mahlaku hloohong ya
046_0472 tse ntjha tsa ho banka
046_0473 boafrika borwa ba rona bo
046_0475 ludwig von mises
046_0476 itseng ntle le ho ama
046_0480 kapa o tshwerwe tlasa mental
046_0481 setsheng sa bafu sa poraefete
046_0483 ke boikarabelo ba moahi e
046_0484 security assistance force
046_0488 meade
046_0493 memphis
046_0494 united states navy
046_0496 moralo wa tshebetso wa naha
046_0498 royal dutch shell
046_0499 foromo ya kopo ka dikopi
046_0500 rapid economic growth
046_0503 n g rjuna
046_0504 essential fatty acids
046_0505 metsi a mangata hoo tse
046_0506 e leng commission for conciliation
046_0510 ebe o nka kilograma e
046_0511 lokela ho tlatswa ke bajalefa
046_0512 david
046_0513 american short story
046_0514 batho ba habo rona hore
046_0516 e ka nka dikgwedi tse
046_0517 nakong ya matsatsi a balemi
046_0518 thuto ya kalafo ya tsa
046_0519 internal combustion engine
046_0520 ho hloleha ho etsa jwalo
046_0522 human rights record
046_0525 guano islands act
046_0526 ditokomane tse latelang tse tshehetsang
046_0528 american musical theatre
046_0532 ho balwa ka botebo le
046_0533 lengolo la bopaki la phytosanitary
046_0534 nka nako e ka etsang
046_0535 john von neumann
046_0539 wayne state university
046_0546 north west company
046_0550 day saint movement
046_0552 ya b di be tharo
046_0553 treaty organization nato
046_0555 ba dilemo tse ka hodimo
046_0556 afidaviti eo ho entsweng kano
046_0558 palamente ya rephaboliki ya afrika
046_0559 chinese communist party
046_0560 guru granth sahib
046_0561 kansas state university
046_0564 united states federal
046_0565 ya seteraeke kapa ho notlellwa
046_0566 jewish american writers
046_0567 le haufi le la sars
046_0570 a mmalwa ho ya dibekeng
046_0572 ya tswelang pele ka mosebetsi
046_0573 international financial institutions
046_0574 nka nako e telele ho
046_0575 native american tribes
046_0576 united arab emirates
046_0578 sehla se hlahlamang sa ho
046_0579 social democratic party
046_0580 arizona state university
046_0581 lengolo le tswang ho setho
046_0584 terekere le disebediswa tsa temo
046_0586 winter olympic games
046_0588 ditshebeletso tsa sepolesa sa afrika
046_0590 missing living people
046_0591 real gdp growth
046_0593 chinese civil war
046_0595 form hydrogen bonds
046_0596 le ba nang le seabo
046_0600 received mixed reviews
046_0601 hang ka selemo ka mora
046_0602 mong le e mong ya
046_0603 kuno e phahameng ya dijothollo
046_0605 motho ya jwalo ha se
046_0606 clarify date november
046_0607 eo ba nang le yona
046_0611 halleck
046_0612 sera
046_0614 e batlang e le ntle
046_0615 central processing unit
046_0616 ludwig von mises
046_0618 mtv video music
046_0619 united states army
046_0621 seteisheneng sa mapolesa se haufi
046_0622 ya afrika borwa ba dilemo
046_0624 bonaparte
046_0625 ho etsa qeto mabapi le
046_0628 test ban treaty
046_0629 kopo ya ho tholwa ha
046_0630 los angeles county
046_0631 civil class
047_0003 mahola e tshwanetse ho etswa
047_0006 following world war
047_0007 efe kapa efe eo ho
047_0009 award winning authors
047_0012 provenseng kang ho tla ba
047_0014 e nang le share capital
047_0015 kenngwa ha jine ya bt
047_0018 le ho romela ditokomane ho
047_0023 ka bonyane dipuo tse tsheletseng
047_0025 ho tshwarella nako e telele
047_0029 american film producers
047_0031 north germanic languages
047_0034 dingane
047_0035 randburg
047_0036 ho se na motho ya
047_0039 mme hona ho tla ya
047_0044 american jewish people
047_0047 red blood cells
047_0048 national football team
047_0051 sepolesa sa aforikaborwa e lefe
047_0055 moo motho a fumanang kuno
047_0056 lebelo la ho potoloha ha
047_0057 aterese ya moo o dulang
047_0058 european economic area
047_0060 di na le nako e
047_0064 holy hand grenade
047_0065 hlodisana le dijothollo mabapi le
047_0066 original game boy
047_0068 average family size
047_0069 e tswang ho registrar of
047_0071 san francisco giants
047_0072 bakeng sa morwalo o mong
047_0073 russian civil war
047_0074 tlhokomelo mabapi le tshebediso e
047_0075 ka mokgwa o hlakileng ho
047_0076 o tshwanetse ho ba le
047_0077 chancellorsville
047_0078 nelson mandela le thabo mbeki
047_0079 strategic air command
047_0080 rala mme o romele ditokomene
047_0082 magnetic resonance imaging
047_0083 madison square garden
047_0085 bao e leng ditho tsa
047_0087 ya mahola le dikokwanyana ka
047_0090 afrika borwa ba leng mose
047_0093 ho ntsha raporoto ya radiology
047_0097 hore ba kgone ho ba
047_0099 royal albert hall
047_0101 miller's
047_0103 electron transport chain
047_0106 north west company
047_0111 articles including recorded
047_0112 boholo ba masimo a hao
047_0118 tswa ho monga setsha seo
047_0123 kopo ya laesense ya sekepe
047_0125 diprojeke tsa bohlokwa tsa lenaneo
047_0126 di ka etswa hape le
047_0127 tse felletseng tsa moo ho
047_0129 tailor
047_0130 modern orthodox judaism
047_0131 history
047_0137 states environmental protection
047_0139 power parity comparisons
047_0143 south asian association
047_0144 new york yankees
047_0145 laesense ya boditjhaba ya ho
047_0146 hospital
047_0148 re tsebang ho sebetsa re
047_0149 supreme court ruled
047_0151 ho lefa molato wa hao
047_0153 early church fathers
047_0156 tlhahiso ya dijothollo mobung o
047_0157 blood
047_0158 mabapi le mefuta e metle
047_0165 strong nuclear force
047_0169 ozone layer protection
047_0172 tsela e tla ba le
047_0173 bay
047_0175 bilateral immunity agreement
047_0179 supreme allied commander
047_0180 mabitso a bonkgetheng bakeng sa
047_0181 tsosoloso ya boemo ba theshiari
047_0182 fifa world cup
047_0186 ya etsang kopo ya tokomane
047_0189 maseru
047_0190 golden globe film
047_0191 internet protocol suite
047_0192 ba bangata ba ile ba
047_0195 harry
047_0199 fact date august
047_0200 pheta tshebetso ena makgetlo a
047_0201 motho a tshwerweng ho yona
047_0202 recent common ancestor
047_0203 man
047_0205 ntswaki
047_0206 di be tharo mme o
047_0209 tlhokeho ya mosebetsi wa ho
047_0213 ka morero wa ho matlafatsa
047_0214 baheno
047_0216 la afrika borwa la basebetsi
047_0220 seng le lefilwe bakeng sa
047_0223 convention
047_0228 randfontein
047_0229 bill
047_0232 durban
047_0238 american male singers
047_0242 jwalo ka ha ho hlokeha
047_0247 saense ya tlhaho dikri diploma
047_0248 saint john river
047_0253 dipuo tsa afrika borwa tsa
047_0258 president george
047_0261 common law jurisdictions
047_0262 african
047_0268 ka ntle ya batlang ho
047_0269 screen actors guild
047_0270 hartbeespoort
047_0280 le ho tempuwa ke mosebeletsi
047_0281 tlamehile maoto le matsoho ho
047_0282 hore mobu o na le
047_0283 sapoto jwalo ka ha e
047_0285 buddhism
047_0286 e kenella tlase mobung le
047_0287 foreign direct investment
047_0288 army air corps
047_0291 ho se ho kenwe ho
047_0293 e tla fapana ka ho
047_0296 united states army
047_0298 bafta winners people
047_0299 indastering e batsi ya temo
047_0302 tse ding le tse ding
047_0305 lekgotla la ho ntshuwa ha
047_0306 hlahisa dijothollo di phahame haholo
047_0309 bridgeport
047_0313 high seas fleet
047_0318 leng se bolelang hore ho
047_0323 national hockey league
047_0327 tadimilwe thibelo ya tlhodisano le
047_0329 ya ho jala dijothollo tse
047_0336 potter's
047_0337 october
047_0339 numeric character references
047_0344 united states
047_0345 tsa taolo ka dikhemikhale le
047_0347 new york jets
047_0348 grammatical
047_0349 monroe
047_0350 peo ya ona e ka
047_0356 cathode ray tube
047_0360 church turing thesis
047_0365 poids et mesures
047_0369 free methodist church
047_0373 national science foundation
047_0375 hodimo ho moo ba tla
047_0378 southwestern united states
047_0382 centrally planned economy
047_0383 golden globe winners
047_0384 boleng ba bophelo ba batho
047_0391 van der waals
047_0393 se fetileng sa hlabula e
047_0395 united states president
047_0396 september
047_0398 mokgwa wa elektroniki kapa khaontareng
047_0403 nfc championship game
047_0405 kgahlanong le dikgoka ho basadi
047_0412 environmental protection agency
047_0413 big bang model
047_0419 league baseball team
047_0421 federal trade commission
047_0426 palestine liberation organization
047_0427 o neng o rena ditherisanong
047_0428 sa witblits se neng se
047_0432 science fiction novel
047_0433 senqu
047_0435 moscow state university
047_0436 ba ka tlasa dilemo tse
047_0437 feteng dikgwedi tse tharo kapa
047_0439 military coup
047_0443 armoured fighting vehicles
047_0444 kapa dife tse amanang le
047_0445 protea
047_0447 wa afrika borwa a ka
047_0448 recreation
047_0454 moo ho ipehilweng ka tsela
047_0457 le hore re tle re
047_0458 madison square garden
047_0460 motor vehicle manufacturers
047_0462 primitive recursive functions
047_0466 junior high school
047_0467 good
047_0471 best foreign language
047_0473 law enforcement agencies
047_0475 boqwabi
047_0476 proffesor
047_0477 ba ka hodimo ho dilemo
047_0478 balemi ba batjha ba ka
047_0479 court ha e le traste
047_0481 human development index
047_0486 complaints
047_0492 neelane ka kopo ya hao
047_0494 hall
047_0497 gibbon
047_0500 islamic conference oic
047_0502 station
047_0503 clarify date february
047_0505 ntle mofuta wa hlapi o
047_0511 e na le dimojule tse
047_0518 sebediswang wa ho phethola mobu
047_0519 animated television series
047_0525 merafong le temong bakeng sa
047_0527 army occupied cypriot
047_0540 mahola ke sera sa pele
047_0543 american political writers
047_0545 ikopanye le ofisi ya lefapha
047_0546 nebula award winning
047_0551 liberal arts college
047_0552 open source initiative
047_0556 nakong ya dikgwedi tsa hlabula
047_0558 ntlafatsa polokeho le tshireletso ya
047_0561 petroleum exporting countries
048_0001 ho tla etswa ho latela
048_0004 central
048_0006 october
048_0007 dipuo tsa afrika borwa tsa
048_0008 army air corps
048_0009 ba ka hodimo ho dilemo
048_0012 ha ho kgethwa dipuo tseo
048_0013 united states senate
048_0014 protea
048_0015 tlhokomelo mabapi le tshebediso e
048_0016 sa witblits se neng se
048_0018 kgothalletsa ka matla tshebediso ya
048_0019 hore ho na le tshebetso
048_0021 convention
048_0022 nuclear test ban
048_0023 ya ho tswela pele ha
048_0024 kontane kapa ka tjheke e
048_0026 rala mme o romele ditokomene
048_0028 leng le le leng kapa
048_0029 tla tshwarwa ka mokgwa o
048_0030 sireletsa le ho matlafatsa botsebi
048_0031 ha eba kere e potolohisang
048_0037 manejara wa lebatowa a ananela
048_0038 ozone layer protection
048_0039 la ditaba tsa lehae hore
048_0040 randfontein
048_0042 fifa world cup
048_0043 american male singers
048_0044 e kenella tlase mobung le
048_0048 hlodisana le dijothollo mabapi le
048_0049 great lakes region
048_0051 be bonolo ho palama baesekele
048_0052 lekala
048_0060 nako e telele ho tiisitse
048_0062 o ne a atisa ho
048_0063 motho ka mong o tlamehile
048_0064 leng se bolelang hore ho
048_0065 phemiti ya ho rafa kapa
048_0066 south asian association
048_0067 le reng limited le tla
048_0068 argentina ho ya afrika borwa
048_0070 ha fela ho sa ntse
048_0071 bad
048_0075 bill
048_0077 tlhahiso ya poone le soneblomo
048_0078 russian civil war
048_0079 nako e hlokolosi e ka
048_0080 di tswela pele ho sa
048_0084 palestine liberation organization
048_0086 seng le lefilwe bakeng sa
048_0087 afrika borwa ba leng mose
048_0090 tlamehile maoto le matsoho ho
048_0091 following world war
048_0093 le ho tempuwa ke mosebeletsi
048_0094 akhaonteng e latelang ya banka
048_0095 internet protocol suite
048_0096 original game boy
048_0097 boholo ba masimo a hao
048_0105 kgatello ya tshebediso ya mefuta
048_0106 ho hlokeha lengolo la tumello
048_0107 tswela pele ho sebetsa le
048_0109 cathode ray tube
048_0111 united states president
048_0113 ya thuso bakeng sa ho
048_0116 national football team
048_0118 southwestern united states
048_0120 modern orthodox judaism
048_0121 valhalla
048_0123 tshebetso ya botsebi ba saense
048_0124 e sebetswa letsatsing leo e
048_0125 science fiction novel
048_0126 la provinse kapa la naha
048_0127 jwalo ka ha ho hlokeha
048_0130 ho se ho kenwe ho
048_0131 hospital
048_0132 high seas fleet
048_0133 wa etsa tshebetso tsa kgwebisano
048_0134 buddhism
048_0135 screen actors guild
048_0141 o lokela ho ba motho
048_0144 supreme court ruled
048_0145 golden globe winners
048_0146 bilateral immunity agreement
048_0149 fact date march
048_0151 mabapi le ho sebedisa poone
048_0153 ba lakatsang ho sebetsa jwalo
048_0154 feteng dikgwedi tse tharo kapa
048_0155 american jewish people
048_0156 ka baka hore a lefiswe
048_0160 ka mora kotulo ya koro
048_0162 holy hand grenade
048_0163 ditaba tsena di nkilwe thutong
048_0164 provenseng kang ho tla ba
048_0166 tsa larvae hammoho le mahe
048_0167 articles including recorded
048_0172 sa sepolesa sa afrika borwa
048_0173 ho lefa molato wa hao
048_0174 la afrika borwa la basebetsi
048_0175 moo ho ipehilweng ka tsela
048_0176 mang ya ikemiseditseng ho nehelana
048_0178 european economic area
048_0180 tshebedisano e kwetsweng e lefa
048_0181 lokile pele o etsa kopo
048_0182 chancellorsville
048_0185 united states geological
048_0186 states environmental protection
048_0187 potter's
048_0188 org wiki wikipedia
048_0190 tailor
048_0192 van der waals
048_0193 international atomic energy
048_0194 golden globe film
048_0195 poone le dinawa tsa soya
048_0196 big bang model
048_0197 kenngwa ha jine ya bt
048_0198 hore ditokomane tsa mmuso ha
048_0199 tsa lekgetho di ka phethahatswa
048_0200 la boemo bo hodimo la
048_0201 ka nepo le ho boloka
048_0202 midrand
048_0203 batho
048_0204 ke molaodi kakaretso kapa o
048_0205 le ho tloswa ha matlakala
048_0206 ya saense ya lekgotleng la
048_0207 saint john river
048_0208 mabapi le sehla se tlang
048_0209 award winning authors
048_0210 hlahisa dijothollo di phahame haholo
048_0211 butlebutle ka mokgwa o ke
048_0212 church turing thesis
048_0215 kgopolo ya hore dihlahiswa tse
048_0216 banna le basadi ba na
048_0218 lefapheng la kgwebo le indasteri
048_0219 seboka sa naha le lekgotla
048_0220 makgoweng
048_0221 tadimilwe thibelo ya tlhodisano le
048_0222 american film producers
048_0224 laesense ya boditjhaba ya ho
048_0227 tshebeletso ya poso e sa
048_0228 supreme allied commander
048_0229 la ditaba tsa tikoloho le
048_0234 madison square garden
048_0235 o neng o rena ditherisanong
048_0237 fiction television series
048_0238 harry
048_0243 kofi
048_0245 human development index
048_0248 average family size
048_0249 e leng se etsang hore
048_0250 metsimaholo
048_0251 sam
048_0255 environmental protection agency
048_0256 phepelo ya dijo tsa polasing
048_0258 early church fathers
048_0260 citation needed april
048_0261 hartbeespoort
048_0263 new york yankees
048_0265 mahareng a phato ho fihlela
048_0266 fact date august
048_0267 baka mathata temong ya dijothollo
048_0268 monroe
048_0269 maseru
048_0270 ya rona ya puo le
048_0271 july
048_0272 dingane
048_0274 mabitso a bonkgetheng bakeng sa
048_0276 lokelang ho fetolelwa bafetoleding ba
048_0277 french west africa
048_0279 nakwana ke ho thusa balefi
048_0280 mokgwa wa elektroniki kapa khaontareng
048_0281 bafta winners people
048_0282 maano a tsona ho latela
048_0283 ya sefafatsi se fatshe sa
048_0286 ba ngodise ho south african
048_0288 north west company
048_0289 eighty years war
048_0290 ho tshwasa ka palo e
048_0294 kopi e tiiseditsweng ya bukana
048_0297 american psychiatric association
048_0299 john
048_0303 mahola e tshwanetse ho etswa
048_0304 dikarolo dife kapa dife tse
048_0305 kapa mokgatlo wa nakwana o
048_0306 tokomane eo o batlang ho
048_0307 maemo ana a mabe a
048_0310 a na le tokelo ya
048_0311 ka morero wa ho matlafatsa
048_0312 royal albert hall
048_0313 red blood cells
048_0314 hall
048_0315 ho tshwarella nako e telele
048_0316 e le kgolo ho eo
048_0318 a lehodimo nakong ya tshebediso
048_0319 tshebetso e etsang hore ho
048_0320 league baseball team
048_0321 le hore re tle re
048_0324 diprojeke tsa bohlokwa tsa lenaneo
048_0325 haufi le wena kapa ba
048_0328 hore menyenyetsi e mabapi le
048_0332 seahelo sa ho lokisa tlhapi
048_0334 tsosoloso ya boemo ba theshiari
048_0335 ile wa rekisetswa lefapha la
048_0337 ho kenngwa tshebetsong ha melao
048_0338 television shows set
048_0339 moscow state university
048_0340 good
048_0341 rona bo tataiswe haholo ke
048_0343 mabapi le tlhahiso ya koro
048_0345 recent common ancestor
048_0346 bragg
048_0348 history
048_0350 grammatical
048_0351 indastering e batsi ya temo
048_0353 united states
048_0354 tumello e ngotsweng fatshe e
048_0357 gibbon
048_0358 e nang le share capital
048_0359 nfc championship game
048_0360 magnetic resonance imaging
048_0361 ngotsweng ya ho ngodisa ofising
048_0364 september
048_0366 lekgotla la ho ntshuwa ha
048_0368 federal trade commission
048_0369 motho a tshwerweng ho yona
048_0370 roman catholic priests
048_0371 ka bonyane dipuo tse tsheletseng
048_0374 ho tloha sebopehong sa kgale
048_0377 tikoloho
048_0378 e fumaneha ka potlako weposaeteng
048_0380 le hore se sebetsa jwang
048_0381 proffesor
048_0382 tlhaho temeng ya saense ya
048_0383 ya hae ntle ho lebaka
048_0384 free methodist church
048_0385 randburg
048_0389 san francisco giants
048_0393 best foreign language
048_0394 le eneji le la dikgwebo
048_0396 ho se na motho ya
048_0397 primitive recursive functions
048_0398 system
048_0400 new york jets
048_0402 ho na le mefuta e
048_0403 centrally planned economy
048_0405 sebetsa jwalo ka borasaense ba
048_0406 united states census
048_0408 ho ntsha raporoto ya radiology
048_0412 ya ho lebela ya bopolesa
048_0413 red blood cells
048_0414 ho sireletsa le ho matlafatsa
048_0415 se kgethollwe ho ya ka
048_0416 ka nngwe e na le
048_0417 sepolesa sa aforikaborwa e lefe
048_0423 junior high school
048_0424 ya poso e sa risefuwang
048_0426 man
048_0427 bridgeport
048_0428 bao e leng ditho tsa
048_0429 kgone ho tswela pele ka
048_0430 president george
048_0431 lenane la batho ba e
048_0433 le ho romela ditokomane ho
048_0434 leqephe la pele la foromo
048_0435 moralo wa leano la puo
048_0438 mme re tshepa hore moya
048_0439 a diphoofolo tsa afrika borwa
048_0440 tlhahiso ya dijothollo mobung o
048_0441 moaho wa lekgotla la naha
048_0444 ka dikopi tse tiiseleditsweng tsa
048_0445 national hockey league
048_0446 electron transport chain
048_0447 ya ho jala dijothollo tse
048_0448 re tsebang ho sebetsa re
048_0450 peo ya ona e ka
048_0452 taolo ka dikhemikhale le mefuta
048_0453 power parity comparisons
048_0455 recreation
048_0456 common law jurisdictions
048_0457 hore ba kgone ho ba
048_0458 etsa hore balemi ba kgone
048_0460 tlhahiso e tswetseng pele ya
048_0461 tlhokeho ya mosebetsi wa ho
048_0463 banka
048_0465 ho tholwa ha ngwana ka
048_0466 military coup
048_0467 afrika borwa ha kopo e
048_0469 congressional gold medal
048_0470 miller's
048_0471 foreign direct investment
048_0472 strong nuclear force
048_0473 african
048_0474 tlwaelo e ke ke ya
048_0475 law enforcement agencies
048_0478 north germanic languages
048_0479 ke ema ka pela lona
048_0483 madison square garden
048_0484 ditaba tse amanang le molao
048_0485 united states army
048_0489 national science foundation
048_0490 di na le nako e
048_0492 mang ya ka etsang kopo
048_0497 ho sebedisa lebitso le molaong
048_0498 nebula award winning
048_0499 rephaboliki
048_0500 ho fumana kalafo ya bongaka
048_0501 clarify date february
048_0502 thibelang lefu ka mora ketsahalo
048_0504 tshwaneleha le moruo wa tshebetso
048_0505 leng hore ha ho hlokehe
048_0506 merafong le temong bakeng sa
048_0508 science fiction hall
048_0511 moralo wa tshebetso wa naha
048_0512 ya grain sa ya tlhahiso
048_0513 re tla sebetsa ka matla
048_0517 ho ngodisa jwalo ka setsebi
048_0519 animated television series
048_0521 ikopanye le ofisi ya lefapha
048_0523 army occupied cypriot
048_0530 mahola ke sera sa pele
048_0534 e ngata ho feta e
048_0538 ho thehwa ha diyuniti tsa
048_0539 national baseball hall
048_0541 ena ke e nngwe ya
048_0542 ba thupelo ba lokela ho
048_0543 american political writers
048_0546 ntlafatsa polokeho le tshireletso ya
048_0547 dintlha tsena ka boraro ba
048_0548 billy
048_0550 tsa lehae provinseng eo o
048_0551 ho isa ho tse nne
048_0552 le moemedi wa afrika borwa
048_0555 phahameng ya poone le mmaraka
048_0556 petroleum exporting countries
049_0001 gibbon
049_0004 environmental protection agency
049_0005 fact date march
049_0006 tswa ho monga setsha seo
049_0007 ngotsweng ya ho ngodisa ofising
049_0008 ho suthisa ka ho ya
049_0009 internet protocol suite
049_0010 akhaonteng e latelang ya banka
049_0011 golden globe film
049_0012 e tlang tse mabapi le
049_0015 mokgwa wa elektroniki kapa khaontareng
049_0019 senqu
049_0022 big bang model
049_0027 motho a tshwerweng ho yona
049_0034 lokelang ho fetolelwa bafetoleding ba
049_0037 american jewish people
049_0038 american male singers
049_0040 formal diplomatic relations
049_0042 national science foundation
049_0044 high seas fleet
049_0045 ka mokgwa o nepahetseng nakong
049_0046 united states geological
049_0047 tla tshwarwa ka mokgwa o
049_0048 convention
049_0051 mamelodi
049_0055 motho ka mong o tlamehile
049_0057 russian civil war
049_0058 poids et mesures
049_0060 wa afrika borwa a ka
049_0063 ka ba ka mokgwa wa
049_0064 bragg
049_0068 ka bonyane dipuo tse tsheletseng
049_0070 complaints
049_0075 fiction television series
049_0079 ho ntsha raporoto ya radiology
049_0080 red blood cells
049_0081 e tswang ho registrar of
049_0083 le ho romela ditokomane ho
049_0097 holy hand grenade
049_0100 mesebetsi e itseng ka ho
049_0101 hore ba kgone ho ba
049_0107 federal trade commission
049_0108 states environmental protection
049_0109 randburg
049_0116 good
049_0117 articles including recorded
049_0118 bophelong
049_0122 ba ka hodimo ho dilemo
049_0128 batsi mabapi le sekgahla sa
049_0130 monroe
049_0132 law enforcement agencies
049_0141 united states army
049_0144 harry
049_0145 ozone layer protection
049_0149 common law jurisdictions
049_0151 tlwaelo e ke ke ya
049_0153 provenseng kang ho tla ba
049_0161 fact date august
049_0162 early church fathers
049_0165 church turing thesis
049_0167 haholo ke moruo wa tsona
049_0169 sam
049_0171 bridgeport
049_0172 lebelo la ho potoloha ha
049_0178 e nang le share capital
049_0180 ho etsa hore naha ya
049_0184 leqephe la pele la foromo
049_0188 bay
049_0192 tlamehile maoto le matsoho ho
049_0195 national football team
049_0199 nelson mandela le thabo mbeki
049_0202 free methodist church
049_0206 o lokela ho ba motho
049_0207 tlhahiso ya poone le mmaraka
049_0208 tlhahiso ya poone tlasa nosetso
049_0212 hore ho na le tshebetso
049_0214 poone le dinawa tsa soya
049_0216 tse ka hodimo tsa mobu
049_0217 buddhism
049_0220 centrally planned economy
049_0221 moaho wa lekgotla la naha
049_0225 maseru
049_0234 palestine liberation organization
049_0235 tse ding le tse ding
049_0236 african
049_0238 ya saense ya lekgotleng la
049_0242 national hockey league
049_0243 original game boy
049_0247 blood
049_0248 screen actors guild
049_0249 madison square garden
049_0250 history
049_0251 haufi le wena kapa ba
049_0257 ke ema ka pela lona
049_0263 setefikeiti sa boingodiso ba koloi
049_0265 united states president
049_0267 le ho tempuwa ke mosebeletsi
049_0274 junior high school
049_0277 terekere le disebediswa tsa polasing
049_0279 european economic area
049_0283 modern orthodox judaism
049_0288 bad
049_0289 ha eba o hloleha ho
049_0290 randfontein
049_0291 o okina ahu
049_0292 electron transport chain
049_0293 moo ho ipehilweng ka tsela
049_0294 strategic air command
049_0295 tswela pele ka mokgwa wa
049_0296 midrand
049_0299 seng le lefilwe bakeng sa
049_0300 bill
049_0301 la dibokonyana tsena tse salang
049_0302 president george
049_0305 armoured fighting vehicles
049_0306 seahelo sa ho lokisa tlhapi
049_0308 tsa larvae hammoho le mahe
049_0310 lekgotleng la dinyewe ho tla
049_0311 moscow state university
049_0315 se kgethollwe ho ya ka
049_0316 best supporting actor
049_0320 league baseball team
049_0322 mabapi le tlhahiso ya koro
049_0323 supreme court ruled
049_0325 recreation
049_0328 military coup
049_0334 july
049_0335 potter's
049_0342 chancellorsville
049_0344 human development index
049_0345 cathode ray tube
049_0349 ke ke wa kgona ho
049_0351 tlhokeho ya mosebetsi wa ho
049_0352 french west africa
049_0355 tse felletseng tsa moo ho
049_0360 san francisco giants
049_0363 following world war
049_0368 boqwabi
049_0370 tikoloho
049_0371 red blood cells
049_0374 television shows set
049_0375 power parity comparisons
049_0376 ka tsela e ke keng
049_0377 magnetic resonance imaging
049_0378 numeric character references
049_0379 e tla fapana ka ho
049_0380 primitive recursive functions
049_0381 american film producers
049_0384 proffesor
049_0392 golden globe winners
049_0395 north west company
049_0399 united states census
049_0400 international atomic energy
049_0403 supreme allied commander
049_0405 miller's
049_0407 org wiki wikipedia
049_0408 baka mathata temong ya dijothollo
049_0413 man
049_0415 le reng limited le tla
049_0417 citation needed april
049_0426 bafta winners people
049_0429 o neng o rena ditherisanong
049_0431 leng se bolelang hore ho
049_0434 madison square garden
049_0436 strong nuclear force
049_0438 lefapheng la kgwebo le indasteri
049_0443 royal albert hall
049_0445 grammatical
049_0447 durban
049_0452 new york yankees
049_0453 saint john river
049_0456 october
049_0463 sa witblits se neng se
049_0466 hore mobu o na le
049_0467 north germanic languages
049_0471 efe kapa efe eo ho
049_0475 motor vehicle manufacturers
049_0479 congressional gold medal
049_0482 ditaba tsena di nkilwe thutong
049_0484 foreign direct investment
049_0486 army air corps
049_0487 moo motho a fumanang kuno
049_0488 ho hlokeha lengolo la tumello
049_0490 bakeng sa morwalo o mong
049_0492 kgahlanong le dikgoka ho basadi
049_0493 tsosoloso ya boemo ba theshiari
049_0494 moahong wa lekgotla la naha
049_0496 tlhekelo ka letona la bonono
049_0497 sebediswang wa ho phethola mobu
049_0499 clarify date february
049_0501 islamic conference oic
049_0502 national baseball hall
049_0505 mora ho ba kopo ya
049_0507 army occupied cypriot
049_0509 ho ngodisa jwalo ka setsebi
049_0510 ba thupelo ba lokela ho
049_0513 science fiction hall
049_0516 united states district
049_0523 ho tswela pele ho ya
049_0528 dintlha tsena ka boraro ba
049_0529 american political writers
049_0530 ho fumana kalafo ya bongaka
049_0534 liberal arts college
049_0535 ya grain sa ya tlhahiso
049_0540 animated television series
049_0550 open source initiative
050_0001 e tswang ho registrar of
050_0003 efe kapa efe eo ho
050_0005 eighty years war
050_0007 supreme court ruled
050_0017 numeric character references
050_0020 tsebisa ka ho o ngolla
050_0026 blood
050_0028 national hockey league
050_0032 bill
050_0034 motho ya tshwereng thaetlele kapa
050_0035 efe kapa efe e boletsweng
050_0036 recreation
050_0037 golden globe film
050_0038 di be tharo mme o
050_0039 gibbon
050_0041 le ho tempuwa ke mosebeletsi
050_0044 tlhahiso ya poone tlasa nosetso
050_0045 fact date august
050_0046 ile ba hapa moputso wa
050_0047 nakwana ke ho thusa balefi
050_0048 american jewish people
050_0050 banka
050_0051 tsosoloso ya boemo ba theshiari
050_0052 madison square garden
050_0054 ya poso e sa risefuwang
050_0056 tsitsitseng mmusong maemong le ha
050_0058 boleng ba bophelo ba batho
050_0059 roman catholic priests
050_0063 red blood cells
050_0070 chancellorsville
050_0071 palestine liberation organization
050_0077 sebediswa ho laola lebelo la
050_0078 diprojeke tsa bohlokwa tsa lenaneo
050_0079 tsa larvae hammoho le mahe
050_0082 randburg
050_0084 ha eba kere e potolohisang
050_0087 congressional gold medal
050_0089 ngotsweng ya ho ngodisa ofising
050_0090 dineo
050_0092 human development index
050_0094 holy hand grenade
050_0095 nuclear test ban
050_0098 maseru
050_0099 ho sireletsa le ho matlafatsa
050_0105 be bonolo ho palama baesekele
050_0107 tlwaelo e ke ke ya
050_0109 tse ka hodimo tsa mobu
050_0112 tshebedisano e kwetsweng e lefa
050_0113 armoured fighting vehicles
050_0114 ho tloha sebopehong sa kgale
050_0115 ho ntsha raporoto ya radiology
050_0116 ba bangata ba ile ba
050_0118 army air corps
050_0120 durban
050_0125 television shows set
050_0126 tlhahiso ya dijothollo mobung o
050_0130 midrand
050_0132 ya ho tswela pele ha
050_0135 monroe
050_0137 ntswaki
050_0150 new york yankees
050_0153 ozone layer protection
050_0154 san francisco giants
050_0160 electron transport chain
050_0175 tswa ho monga setsha seo
050_0176 poids et mesures
050_0184 european economic area
050_0186 madison square garden
050_0193 articles including recorded
050_0200 average family size
050_0201 ya saense ya lekgotleng la
050_0202 french west africa
050_0204 batho
050_0212 ka mokgwa o hlakileng ho
050_0213 red blood cells
050_0214 mesebetsi efe ya ho mmaraka
050_0219 motor vehicle manufacturers
050_0220 e leng se etsang hore
050_0224 hoer leano le phethahale bophelong
050_0227 potter's
050_0230 taolo ka dikhemikhale le mefuta
050_0237 e nang le share capital
050_0240 o motsho le o mosweu
050_0241 ya tumello ya ho romela
050_0243 science fiction novel
050_0245 power parity comparisons
050_0250 golden globe winners
050_0251 bad
050_0252 proffesor
050_0254 best foreign language
050_0255 sa witblits se neng se
050_0256 fiction television series
050_0257 ha re sebetsa mmoho re
050_0259 terekere le disebediswa tsa polasing
050_0261 le ho romela ditokomane ho
050_0262 environmental protection agency
050_0263 john
050_0264 following world war
050_0267 tailor
050_0269 strategic air command
050_0270 empire
050_0275 law enforcement agencies
050_0278 senqu
050_0281 magnetic resonance imaging
050_0283 original game boy
050_0293 complaints
050_0295 phepelo ya dijo tsa polasing
050_0300 motho a tshwerweng ho yona
050_0301 ka ntle ya batlang ho
050_0302 american film producers
050_0303 ho hlokeha lengolo la tumello
050_0304 sepolesa sa aforikaborwa e lefe
050_0305 ho lefa molato wa hao
050_0307 foreign direct investment
050_0308 south asian association
050_0312 argentina ho ya afrika borwa
050_0313 tse felletseng tsa moo ho
050_0315 tadimilwe thibelo ya tlhodisano le
050_0317 hospital
050_0319 internet protocol suite
050_0320 church turing thesis
050_0323 new york jets
050_0326 modern orthodox judaism
050_0330 north germanic languages
050_0331 federal trade commission
050_0335 ho fanwa ka sona ka
050_0337 bafta winners people
050_0347 bragg
050_0353 se kgethollwe ho ya ka
050_0354 mabapi le mefuta e metle
050_0355 jwalo ka ha ho hlokeha
050_0356 bay
050_0365 o lokela ho ba motho
050_0372 ha metsi pakeng tsa dikarolwana
050_0373 ba ka hodimo ho dilemo
050_0377 kofi
050_0378 states environmental protection
050_0379 manejara wa lebatowa a ananela
050_0382 screen actors guild
050_0384 september
050_0386 best supporting actor
050_0387 nfc championship game
050_0392 convention
050_0395 tswela pele ho sebetsa le
050_0397 ya mahola le dikokwanyana ka
050_0398 kgone ho tswela pele ka
050_0402 russian civil war
050_0408 ho tholwa ha ngwana ka
050_0409 free methodist church
050_0412 common law jurisdictions
050_0414 van der waals
050_0416 o na le diterekere le
050_0420 randfontein
050_0429 nelson mandela le thabo mbeki
050_0431 big bang model
050_0435 lekgotla la ho ntshuwa ha
050_0437 american male singers
050_0439 man
050_0440 primitive recursive functions
050_0445 ke ke wa kgona ho
050_0446 mokgwa wa elektroniki kapa khaontareng
050_0447 feta pele hore ho na
050_0448 harry
050_0458 tshebetso e etsang hore ho
050_0460 saint john river
050_0461 e ka nna yaba o
050_0464 tlhokeho ya mosebetsi wa ho
050_0465 basebeletsi ba hao le dijothollo
050_0466 tla tshwarwa ka mokgwa o
050_0469 good
050_0470 formal diplomatic relations
050_0471 military coup
050_0473 fifa world cup
050_0474 ka mora kotulo ya koro
050_0475 re kopa hore o ele
050_0476 united states army
050_0478 moo motho a fumanang kuno
050_0479 sireletsa le ho matlafatsa botsebi
050_0480 bridgeport
050_0484 tla kenyeletsa bonyane thuto e
050_0485 kapa mokgatlo wa nakwana o
050_0486 international atomic energy
050_0487 system
050_0489 ka ba ka mokgwa wa
050_0490 junior high school
050_0494 ya thuso bakeng sa ho
050_0495 ntshetsopele ya dipeo tsa oli
050_0500 sebediswang wa ho phethola mobu
050_0511 thibelang lefu ka mora ketsahalo
050_0514 ho beha leihlo tshebediso ya
051_0006 recreation
051_0011 good
051_0022 ya thuso bakeng sa ho
051_0024 primitive recursive functions
051_0026 award winning authors
051_0028 randburg
051_0034 se kgethollwe ho ya ka
051_0036 harry
051_0041 russian civil war
051_0043 international atomic energy
051_0049 ho se ho kenwe ho
051_0050 church turing thesis
051_0051 screen actors guild
051_0055 bakeng sa morwalo o mong
051_0057 tokomane eo o batlang ho
051_0059 history
051_0067 ozone layer protection
051_0068 ho tshwarella nako e telele
051_0077 hospital
051_0082 durban
051_0083 big bang model
051_0089 foreign direct investment
051_0090 gibbon
051_0099 bilateral immunity agreement
051_0100 southwestern united states
051_0103 fiction television series
051_0105 sam
051_0115 national football team
051_0120 pakeng tsa dikarolwana tsa mobu
051_0123 e tswang ho registrar of
051_0124 citation needed april
051_0135 complaints
051_0137 united states geological
051_0140 common law jurisdictions
051_0141 boqwabi
051_0144 original game boy
051_0155 re kopa hore o ele
051_0156 internet protocol suite
051_0159 e tla fapana ka ho
051_0160 sebedisa tlhahisoleseding e kentsweng ke
051_0165 midrand
051_0166 fact date march
051_0170 motor vehicle manufacturers
051_0174 kgone ho tswela pele ka
051_0176 mokgwa wa elektroniki kapa khaontareng
051_0177 october
051_0179 potter's
051_0184 palestine liberation organization
051_0185 president george
051_0188 ke ke wa kgona ho
051_0192 motho ya tshwereng thaetlele kapa
051_0193 bad
051_0194 man
051_0195 states environmental protection
051_0198 nuclear test ban
051_0200 numeric character references
051_0205 electron transport chain
051_0208 disebediswa tse seng di ile
051_0209 ha metsi pakeng tsa dikarolwana
051_0223 e nang le share capital
051_0230 ka mokgwa o hlakileng ho
051_0231 environmental protection agency
051_0232 ya etsang kopo ya tokomane
051_0233 chancellorsville
051_0237 madison square garden
051_0242 united states president
051_0244 tailor
051_0247 miller's
051_0248 nfc championship game
051_0249 system
051_0252 following world war
051_0254 strong nuclear force
051_0260 september
051_0261 national science foundation
051_0265 l cuin abbr
051_0267 kopi e tiiseditsweng ya bukana
051_0270 tsa larvae hammoho le mahe
051_0275 le eneji le la dikgwebo
051_0278 ding le tse ding tse
051_0284 american jewish people
051_0287 free methodist church
051_0291 bafta winners people
051_0299 television shows set
051_0300 mabapi le tlhahiso ya koro
051_0310 ka nngwe e na le
051_0311 metsimaholo
051_0313 aterese ya moo o dulang
051_0314 senqu
051_0319 articles including recorded
051_0325 new york jets
051_0326 bridgeport
051_0327 bragg
051_0330 tse felletseng tsa moo ho
051_0331 van der waals
051_0335 strategic air command
051_0336 di tswela pele ho sa
051_0340 best foreign language
051_0343 saint john river
051_0346 banka
051_0347 san francisco giants
051_0348 buddhism
051_0350 monroe
051_0351 empire
051_0352 e sebetswa letsatsing leo e
051_0358 tshebetso e etsang hore ho
051_0361 leqephe la pele la foromo
051_0367 golden globe winners
051_0369 efe kapa efe e boletsweng
051_0373 north germanic languages
051_0375 armoured fighting vehicles
051_0376 rona bo tataiswe haholo ke
051_0378 tla romelwa seteisheneng sa mapolesa
051_0380 convention
051_0382 ho kenngwa tshebetsong ha melao
051_0387 randfontein
051_0389 senyesemane
051_0394 united states senate
051_0397 dikopo tse sa tlatswang ka
051_0398 federal trade commission
051_0402 madison square garden
051_0407 south asian association
051_0418 centrally planned economy
051_0420 ya rona ya puo le
051_0427 court ha e le traste
051_0429 military coup
051_0430 american male singers
051_0435 early church fathers
051_0436 recent common ancestor
051_0442 bay
051_0449 a ka nna a baka
051_0453 proffesor
051_0457 setsi se haufi sa mesebetsi
051_0460 bill
051_0469 poids et mesures
051_0472 le o mong o na
051_0474 mang ya ka etsang kopo
051_0479 john
051_0480 golden globe film
051_0481 human development index
051_0485 la provinse kapa la naha
051_0486 tshebedisano e kwetsweng e lefa
051_0487 magnetic resonance imaging
051_0491 cathode ray tube
051_0493 tse ka hodimo tsa mobu
051_0497 ka ntle ya batlang ho
051_0499 new york yankees
052_0004 tsa tokisetso tsa lekgetho di
052_0005 tshebetso e etsang hore ho
052_0006 ngotsweng ya ho ngodisa ofising
052_0007 american male singers
052_0008 buddhism
052_0009 bafta winners people
052_0010 nelson mandela le thabo mbeki
052_0012 ho ntsha raporoto ya radiology
052_0013 bakeng sa nako e kgutshwane
052_0014 tlhahiso ya poone le mmaraka
052_0021 mang ya ikemiseditseng ho nehelana
052_0023 le ho tempuwa ke mosebeletsi
052_0024 e tswang ho registrar of
052_0026 golden globe winners
052_0027 e sebetswa letsatsing leo e
052_0028 mabapi le mefuta e metle
052_0029 dutch east india
052_0032 harry
052_0033 jwalo ka ha ho hlokeha
052_0036 ka mokgwa o sa tlwaelehang
052_0037 league baseball team
052_0039 bill
052_0040 poids et mesures
052_0041 tjhelete ya hae e kenang
052_0042 mesebetsi e itseng ka ho
052_0043 ho suthisa ka ho ya
052_0044 new york jets
052_0045 ba ka hodimo ho dilemo
052_0047 setsi se haufi sa mesebetsi
052_0048 maseru
052_0050 ba lakatsang ho sebetsa jwalo
052_0051 ditaba tsena di nkilwe thutong
052_0053 motho ya tshwereng thaetlele kapa
052_0054 ozone layer protection
052_0055 ya thuso bakeng sa ho
052_0057 banka
052_0060 sa leano la ditekanyetso tsa
052_0063 seng le lefilwe bakeng sa
052_0064 hore ho na le tshebetso
052_0065 e na le boikarabelo ba
052_0066 diminerale kapa mahakwe a bohlokwa
052_0067 mmalwa le traste ditho tsohle
052_0068 senqu
052_0069 naha ya afrika borwa ba
052_0071 ka mokgwa o hlakileng ho
052_0072 e le hore ba tle
052_0075 new york yankees
052_0076 tlhahiso ya poone tlasa nosetso
052_0079 miller's
052_0081 articles including recorded
052_0082 motho a tshwerweng ho yona
052_0083 saint john river
052_0084 tsebisa ka ho o ngolla
052_0086 russian civil war
052_0087 re kopa hore o ele
052_0089 following world war
052_0091 tikoloho
052_0092 sa witblits se neng se
052_0093 ka bonyane dipuo tse tsheletseng
052_0094 common law jurisdictions
052_0095 aterese ya moo o dulang
052_0096 protea
052_0098 hore ditokomane tsa mmuso ha
052_0102 bad
052_0103 dingane
052_0104 haholo ke moruo wa tsona
052_0106 seo o hopotseng ho se
052_0107 royal albert hall
052_0108 ho se ho kenwe ho
052_0110 le hore se sebetsa jwang
052_0113 tlasa merero e hlwauweng mona
052_0116 holy hand grenade
052_0117 mabapi le tlhahiso ya koro
052_0118 tse ka hodimo tsa mobu
052_0119 mabitso a bonkgetheng bakeng sa
052_0122 magnetic resonance imaging
052_0123 la afrika borwa la basebetsi
052_0124 fuwa ditokelo tsa bona tsa
052_0125 randfontein
052_0126 tse felletseng tsa moo ho
052_0129 united states president
052_0130 law enforcement agencies
052_0132 early church fathers
052_0140 makgoweng
052_0141 states environmental protection
052_0143 midrand
052_0144 internet protocol suite
052_0145 bridgeport
052_0146 pheta tshebetso ena makgetlo a
052_0147 man
052_0153 golden globe film
052_0155 eo re neng re e
052_0164 mme re tshepa hore moya
052_0166 strategic air command
052_0168 ha ho kgethwa dipuo tseo
052_0173 ho tshwarella nako e telele
052_0182 mokgatlo o emetseng basebeletsi tumellanong
052_0186 primitive recursive functions
052_0189 durban
052_0191 rala mme o romele ditokomene
052_0192 tsela e tla ba le
052_0193 ke ke wa kgona ho
052_0196 ho lefa molato wa hao
052_0198 e ka nna yaba o
052_0200 formal diplomatic relations
052_0202 tailor
052_0204 tse ding le tse ding
052_0206 bilateral immunity agreement
052_0207 kopo ya laesense ya sekepe
052_0210 best supporting actor
052_0211 boholo ba masimo a hao
052_0212 pakeng tsa dikarolwana tsa mobu
052_0218 north germanic languages
052_0219 hoer leano le phethahale bophelong
052_0223 tsitsitseng mmusong maemong le ha
052_0224 october
052_0226 hlahisa dijothollo di phahame haholo
052_0227 san francisco giants
052_0230 se fana ka monyetla o
052_0233 senyesemane
052_0235 moscow state university
052_0237 tlhahiso ya dijothollo mobung o
052_0238 madison square garden
052_0240 congressional gold medal
052_0241 potter's
052_0245 boqwabi
052_0247 ya mobu bakeng sa ntshetsopele
052_0249 church turing thesis
052_0252 naha ya afrika borwa kapa
052_0255 tlamehile maoto le matsoho ho
052_0256 palestine liberation organization
052_0257 foreign direct investment
052_0259 ke ema ka pela lona
052_0260 rona bo tataiswe haholo ke
052_0263 batsi mabapi le sekgahla sa
052_0264 etsa boipiletso ho letona la
052_0265 tumello e ngotsweng fatshe e
052_0266 eighty years war
052_0267 national hockey league
052_0268 chancellorsville
052_0269 hall
052_0278 good
052_0280 proffesor
052_0283 tlhahiso ya poone le soneblomo
052_0286 o lokela ho ba motho
052_0287 best foreign language
052_0290 sepolesa sa aforikaborwa e lefe
052_0292 original game boy
052_0293 le ho romela ditokomane ho
052_0295 afrika borwa ba leng mose
052_0296 pholisi ya naha ya batjha
052_0297 complaints
052_0298 mokgwa wa elektroniki kapa khaontareng
052_0299 united states
052_0300 hore menyenyetsi e mabapi le
052_0303 keketseho thekong ya matjhaba e
052_0304 numeric character references
052_0305 sehlopheng sa rona sa tshebetso
052_0307 tla romelwa seteisheneng sa mapolesa
052_0310 american film producers
052_0311 recreation
052_0313 president george
052_0315 randburg
052_0316 khampani ya ba mmalwa e
052_0317 average family size
052_0319 motor vehicle manufacturers
052_0320 central
052_0321 strong nuclear force
052_0323 united states geological
052_0325 mang ya ka etsang kopo
052_0328 ya kopo ofising e haufi
052_0332 hore ba kgone ho ba
052_0335 setifikeiti sa tswalo sa afrika
052_0336 fact date august
052_0338 sebetsa jwalo ka borasaense ba
052_0339 fiction television series
052_0343 american psychiatric association
052_0344 kgahlanong le dikgoka ho basadi
052_0346 van der waals
052_0347 tlwaelo e ke ke ya
052_0348 madison square garden
052_0350 bragg
052_0351 ka mokgwa o nepahetseng nakong
052_0352 ho hlokeha lengolo la tumello
052_0353 screen actors guild
052_0354 feteng dikgwedi tse tharo kapa
052_0356 kenngwa ha jine ya bt
052_0357 e nang le share capital
052_0359 science fiction novel
052_0360 fifa world cup
052_0361 convention
052_0362 ka nna ya boela ya
052_0363 o ne a atisa ho
052_0367 afrika borwa ha kopo e
052_0368 tswa ho monga setsha seo
052_0369 ya hae ntle ho lebaka
052_0371 tshebetso ya botsebi ba saense
052_0375 red blood cells
052_0376 united states census
052_0377 ile ba hapa moputso wa
052_0378 taolo ka dikhemikhale le mefuta
052_0380 phethahatso ya leano lena e
052_0381 blood
052_0383 leqephe la pele la foromo
052_0385 hodimo ho moo ba tla
052_0390 dipeo le dipeo tse hlahang
052_0396 centrally planned economy
052_0402 junior high school
052_0403 free methodist church
052_0404 ya ho lebela ya bopolesa
052_0407 empire
052_0408 terekere le disebediswa tsa polasing
052_0409 sebedisa tlhahisoleseding e kentsweng ke
052_0410 nna ya haella ka ha
052_0417 ho tla etswa ho latela
052_0418 french west africa
052_0422 nako e hlokolosi e ka
052_0423 org wiki wikipedia
052_0424 etsa hore balemi ba kgone
052_0428 gibbon
052_0429 electron transport chain
052_0430 ho tloha sebopehong sa kgale
052_0431 nakong eo masimo a tlohetsweng
052_0433 bakeng sa nako ya boholo
052_0434 e fumaneha ka potlako weposaeteng
052_0435 nuclear test ban
052_0438 citation needed april
052_0439 e tla fapana ka ho
052_0441 a diphoofolo tsa afrika borwa
052_0442 south asian association
052_0445 se fetileng sa hlabula e
052_0447 poone le dinawa tsa soya
052_0448 lokelang ho fetolelwa bafetoleding ba
052_0450 federal trade commission
052_0452 setefikeiti sa boingodiso ba koloi
052_0453 kopo ya setefikeiti sa ho
052_0459 e ntshitsweng ke bolaodi bo
052_0460 kgopolo ya hore dihlahiswa tse
052_0461 sa sepolesa sa afrika borwa
052_0463 motho ka mong o tlamehile
052_0464 september
052_0465 laesense ya boditjhaba ya ho
052_0467 european economic area
052_0468 grammatical
052_0470 moaho wa lekgotla la naha
052_0471 cathode ray tube
052_0472 butlebutle ka mokgwa o ke
052_0473 kamohelo ya ho sebetsa jwalo
052_0475 big bang model
052_0477 di tswela pele ho sa
052_0479 ho etsa hore naha ya
052_0480 ha e kenyeletse hlapi ya
052_0482 phemiti ya ho rafa kapa
052_0483 environmental protection agency
052_0484 lekgotleng la dinyewe ho tla
052_0485 nfc championship game
052_0486 ka morero wa ho matlafatsa
052_0488 ile wa rekisetswa lefapha la
052_0492 saense ya tlhaho dikri diploma
052_0493 mabapi le ho sebedisa poone
052_0497 hospital
052_0498 metsimaholo
052_0499 united states district
052_0500 ena ke e nngwe ya
052_0504 sebediswang wa ho phethola mobu
052_0505 re tla sebetsa ka matla
052_0508 ho sebedisa lebitso le molaong
052_0509 thibelang lefu ka mora ketsahalo
052_0510 ka modulasetulo wa sehlopha sa
052_0513 billy
052_0514 ya grain sa ya tlhahiso
052_0515 ho beha leihlo tshebediso ya
053_0005 internet protocol suite
053_0006 junior high school
053_0011 french west africa
053_0018 moscow state university
053_0022 big bang model
053_0026 power parity comparisons
053_0028 nfc championship game
053_0029 blood
053_0033 proffesor
053_0034 banka
053_0035 efe kapa efe eo ho
053_0037 early church fathers
053_0040 supreme allied commander
053_0050 monroe
053_0052 american film producers
053_0053 fiction television series
053_0055 gibbon
053_0066 le o mong o na
053_0067 united states geological
053_0079 protea
053_0080 recent common ancestor
053_0082 bad
053_0098 bill
053_0101 buddhism
053_0103 hall
053_0104 nakong eo masimo a tlohetsweng
053_0108 system
053_0118 holy hand grenade
053_0120 russian civil war
053_0122 july
053_0128 october
053_0141 military coup
053_0142 fifa world cup
053_0146 ntswaki
053_0148 following world war
053_0149 palestine liberation organization
053_0150 convention
053_0164 saint john river
053_0171 magnetic resonance imaging
053_0172 ding le tse ding tse
053_0176 ya thuso bakeng sa ho
053_0179 president george
053_0184 bragg
053_0191 potter's
053_0201 e tla fapana ka ho
053_0205 randfontein
053_0206 award winning authors
053_0208 akhaonteng e latelang ya banka
053_0213 dingane
053_0219 history
053_0223 john
053_0224 good
053_0225 common law jurisdictions
053_0229 golden globe winners
053_0231 sa witblits se neng se
053_0232 citation needed april
053_0234 formal diplomatic relations
053_0236 leqephe la pele la foromo
053_0238 baheno
053_0239 ba ngodise ho south african
053_0240 motor vehicle manufacturers
053_0246 lokelang ho fetolelwa bafetoleding ba
053_0255 chancellorsville
053_0256 lefapheng la kgwebo le indasteri
053_0257 royal albert hall
053_0273 ha eba o hloleha ho
053_0287 army air corps
053_0305 tailor
053_0306 new york jets
053_0311 numeric character references
053_0315 cathode ray tube
053_0319 boqwabi
053_0326 ho se ho kenwe ho
053_0327 church turing thesis
053_0328 primitive recursive functions
053_0329 strong nuclear force
053_0332 recreation
053_0338 moo ho ipehilweng ka tsela
053_0341 united states president
053_0342 screen actors guild
053_0344 states environmental protection
053_0347 provenseng kang ho tla ba
053_0351 bafta winners people
053_0353 org wiki wikipedia
053_0355 motho a tshwerweng ho yona
053_0356 ho suthisa ka ho ya
053_0364 e fuwa baahi ba naha
053_0370 supreme court ruled
053_0375 man
053_0377 best foreign language
053_0382 harry
053_0387 modern orthodox judaism
053_0388 television shows set
053_0389 randburg
053_0390 tadimilwe thibelo ya tlhodisano le
053_0391 national hockey league
053_0393 senqu
053_0397 articles including recorded
053_0398 united states army
053_0399 international atomic energy
053_0400 e le hore ba tle
053_0403 kofi
053_0415 hospital
053_0425 be bonolo ho palama baesekele
053_0429 tsa taolo ka dikhemikhale le
053_0438 leng se bolelang hore ho
053_0440 khampani ya ba mmalwa e
053_0441 electron transport chain
053_0442 law enforcement agencies
053_0448 bilateral immunity agreement
053_0450 human development index
053_0451 environmental protection agency
053_0458 nuclear test ban
053_0463 national football team
053_0467 average family size
053_0471 golden globe film
053_0472 miller's
053_0475 tlhokeho ya mosebetsi wa ho
053_0484 ka ntle ya batlang ho
053_0486 madison square garden
053_0487 foreign direct investment
053_0493 armoured fighting vehicles
053_0498 liberal arts college
053_0502 ho ngodisa jwalo ka setsebi
054_0002 clarify date february
054_0003 theko ya sehlahiswa le bongata
054_0005 fane ka nomoro ya akhauntu
054_0007 itseng ntle le ho ama
054_0013 tshwanela ho etsa kopo ya
054_0014 united states navy
054_0015 game boy advance
054_0018 major professional sports
054_0021 masimo a mang le a
054_0026 ho fafatsa kgahlanong le mahola
054_0028 roman catholic archbishops
054_0036 sa moralo wa puo ho
054_0044 motherwell
054_0045 rona ba ho lwantsha botlokotsebe
054_0049 le hore ho tle ho
054_0051 general public license
054_0052 religious
054_0053 fact date july
054_0056 states district court
054_0058 western united states
054_0059 hong kong island
054_0060 united states government
054_0061 europe music
054_0062 memphis
054_0063 wa setjhaba lawrence mushwana o
054_0066 austrian school economists
054_0068 mane ho isa ho a
054_0075 larry
054_0077 kansas city royals
054_0079 garrick
054_0081 make extensive use
054_0083 united states dollar
054_0084 ya hao ya boitsebiso kapa
054_0086 meade
054_0088 lejwe
054_0091 le haebe ho boletswe ka
054_0092 european union member
054_0093 hang ha ho se ho
054_0098 close air support
054_0099 nebula award winning
054_0104 leng hore ha ho hlokehe
054_0106 security assistance force
054_0109 e ya weposaeteng ya lefapha
054_0111 billion years ago
054_0114 kopo e tlameha ho felehetswa
054_0115 batlang ho fumana boahi ba
054_0118 le hore re kgone ho
054_0119 professional american football
054_0124 osama bin laden
054_0125 ho thehwa ha diyuniti tsa
054_0126 ke mohlodi wa bohlokwa wa
054_0131 ford motor company
054_0134 haufi tsa ntshetsopele ya setjhaba
054_0135 ho beha leihlo tshebediso ya
054_0136 ka modulasetulo wa sehlopha sa
054_0139 tiisitse hore ha ho hlwahlwa
054_0142 early morning hours
054_0143 music awards winners
054_0150 old east norse
054_0152 tsa diporofensi di a nahanwa
054_0156 of access to information act
054_0159 tlameha ho balwa ka botebo
054_0161 leo mobu o leng ho
054_0162 aung san suu
054_0166 e tshwanetse ho phethwa ka
054_0168 american television actors
054_0169 kgothalletswa ho ithuta dipuo tse
054_0173 persian gulf states
054_0174 fact date january
054_0175 united states declaration
054_0178 bo botjha le ho sebedisa
054_0179 national baseball hall
054_0183 notable examples include
054_0184 inshorense ya tse sebediswang mobung
054_0185 kapa o tshwerwe tlasa mental
054_0198 clarify date march
054_0199 petroleum exporting countries
054_0201 ba thupelo ba lokela ho
054_0202 ya naha le ya matjhaba
054_0204 northern
054_0211 tse ntjha tsa ho banka
054_0215 dennilton
054_0219 monetary fund imf
054_0223 nakong ya dikgwedi tsa hlabula
054_0224 gcis e ka fana ka
054_0225 president harry
054_0226 eldorado
054_0230 pimville
054_0232 transvala
054_0234 state university alumni
054_0240 park
054_0244 boramesebetsi ba lokela ho saena
054_0246 e poraefete ya ho fihlella
054_0247 international astronomical union
054_0252 american voice actors
054_0254 united states district
054_0257 grisly
054_0258 atlantic treaty organization
054_0259 ya south african revenue service
054_0260 average life expectancy
054_0262 south sandwich islands
054_0268 british foreign secretary
054_0273 thibelang lefu ka mora ketsahalo
054_0274 sebokeng sa naha bakeng sa
054_0280 sound
054_0282 sebaka moo sepudutsi se ke
054_0283 ya naha e tshwereng motho
054_0284 catherine
054_0291 american free trade
054_0292 dubious date april
054_0295 ho kganna ya borutehi bo
054_0297 jwalo ka ha ho bontshitswe
054_0298 northern mariana islands
054_0302 box office success
054_0306 american science fiction
054_0307 open source initiative
054_0309 kgannelang tlhaselong e eketsehang ya
054_0310 american musical theatre
054_0311 sexually transmitted diseases
054_0312 bethal
054_0322 episcopal church usa
054_0323 american sign language
054_0324 islamic conference oic
054_0329 tsa palamente di tlameha ho
054_0333 nobel prize winners
054_0334 mabapi le tshireletso ya dijo
054_0338 le kgahleho bophelong ba motletlebi
054_0341 hubble space telescope
054_0344 dipalopalo
054_0345 positive real numbers
054_0346 e bile wa bohlokwa ho
054_0348 union member states
054_0351 palestinian national authority
054_0353 high middle ages
054_0355 ho teng ba bang ba
054_0356 video game developers
054_0357 ke boikarabelo ba moahi e
054_0360 boston red sox
054_0365 sefe sa tlhahlobo ya laesense
054_0367 ludwig von mises
054_0371 boyce
054_0377 pope benedict
054_0383 comic book series
054_0385 imperial japanese navy
054_0386 rapid economic growth
054_0388 king james version
054_0390 test ban treaty
054_0400 reef
054_0407 melbourne football club
054_0410 american political writers
054_0411 ancient near east
054_0412 royal dutch shell
054_0413 ho etsa diteko tsa hiv
054_0420 ka hara naha ya afrika
054_0424 roodepoort
054_0426 states unemployment rate
054_0428 tshebediso e phahameng ya sesebediswa
054_0433 ya grain sa ya tlhahiso
054_0437 asian financial crisis
054_0438 la nakwana le lokelwang ho
054_0441 ke notary public kapa mokhomishenara
054_0443 republican party united
054_0444 marcel
054_0445 re tla tswela pele ka
054_0446 hard disk drive
054_0447 frank lloyd wright
054_0449 afrika borwa jwalo ka ha
054_0452 leondale
054_0453 army occupied cypriot
054_0454 aterese le nomoro ya mohala
054_0463 moo e leng hore ho
054_0467 ba ratang naha ya habo
054_0468 lekala la thuto le thupelo
054_0469 samuel's
054_0470 western united states
054_0472 united nations high
054_0477 african unity oau
054_0478 liberal arts college
054_0479 new testament canon
054_0481 old garden roses
054_0482 batshwaruwa
054_0484 kopo ya phemiti ya phapanyetsano
054_0485 ya foromo ena e fuwe
054_0486 boafrika borwa ba rona bo
054_0487 le tumello e ngotsweng fatshe
054_0494 valence bond theory
054_0497 united states began
054_0504 afidaviti eo ho entsweng kano
054_0506 etsa hore a kgone ho
054_0507 human rights record
054_0508 eo ba nang le yona
054_0509 e batlang e le ntle
054_0510 institjhute
054_0512 n g rjuna
054_0513 jewish american writers
054_0518 ho hloleha ho etsa jwalo
054_0520 american short story
054_0521 clarify date november
054_0524 kansas state university
054_0527 ludwig von mises
055_0002 ludwig von mises
055_0003 ke molao wa motheo ho
055_0005 osama bin laden
055_0007 nyetseng nyetsweng eo mohatsae e
055_0008 boyce
055_0009 le nngwe feela afrika borwa
055_0012 hong kong island
055_0013 grand
055_0015 bahwebi ba sa sebedise tlwaelo
055_0017 ho kganna ya borutehi bo
055_0018 imperial japanese navy
055_0019 di fetwa ka bohlwahlwa ke
055_0021 meade
055_0024 batshwaruwa
055_0026 united states government
055_0027 roodepoort
055_0028 boston red sox
055_0029 grain sa ya tlhahiso ya
055_0030 saense ya lekgotleng la molao
055_0031 george
055_0032 mokopi le mohatsa hae ba
055_0033 ba ratang naha ya habo
055_0034 kuno e phahameng ya dijothollo
055_0035 balemi ba ntseng ba thuthuha
055_0036 grisly
055_0037 pro football hall
055_0038 ho itsebisa jwalo ka ntate
055_0040 tse ntjha tsa ho banka
055_0043 rapid economic growth
055_0044 garrick
055_0046 ya boitsebiso kapa setifikeiti sa
055_0047 western european countries
055_0051 american voice actors
055_0052 guano islands act
055_0053 palamente ya rephaboliki ya afrika
055_0054 united states dollar
055_0056 bahlokomedi ba bona ba molao
055_0057 eldorado
055_0059 fane ka nomoro ya akhauntu
055_0063 old garden roses
055_0071 king james version
055_0082 mokgwa o sa tlwaelehang re
055_0084 tse haufi tsa ntshetsopele ya
055_0085 clarify date november
055_0090 fact date january
055_0092 kenya tshebetsong mokgwa wa ho
055_0096 nang le tokelo ya ho
055_0099 ford motor company
055_0101 moahi wa afrika borwa kapa
055_0102 mabapi le tshireletso ya dijo
055_0108 persian gulf states
055_0111 transvala
055_0112 positive real numbers
055_0113 na le tshepo ya hore
055_0114 ka tsela efe kapa efe
055_0116 fihlwang ho yona ya mohlahisi
055_0117 mariha e hloka nako e
055_0118 mong le e mong ya
055_0123 knights grand cross
055_0124 received mixed reviews
055_0125 le mekgwa e meng ya
055_0135 sebokeng sa naha bakeng sa
055_0138 motherwell
055_0140 american sign language
055_0144 united states navy
055_0145 reef
055_0146 le hore ho tle ho
055_0147 tekolo botjha ya ditlwaelo le
055_0148 ke notary public kapa mokhomishenara
055_0149 real gdp growth
055_0150 ho fana ka beile le
055_0151 dilemong tse mmalwa tse fetileng
055_0152 guru granth sahib
055_0153 le haebe ho boletswe ka
055_0154 le hore re kgone ho
055_0155 african unity oau
055_0157 president harry
055_0158 nobel prize winners
055_0161 memphis
055_0163 american television actors
055_0165 new testament canon
055_0167 northern
055_0172 temeng ya saense ya lekgotleng
055_0174 ho mokga o laolang wa
055_0177 national public radio
055_0180 form hydrogen bonds
055_0183 ho tshela oli e ntjha
055_0188 toka
055_0190 dennilton
055_0192 billion years ago
055_0193 functional programming languages
055_0195 united arab emirates
055_0196 american musical theatre
055_0197 ka mokgwa o hlwahlwa ho
055_0206 chinese civil war
055_0207 theko ya oli e tala
055_0210 pakeng tsa batho ba babedi
055_0211 hlahisa ditabatabelo le mehopolo ya
055_0215 notable examples include
055_0217 melbourne football club
055_0225 sehla se hlahlamang sa ho
055_0227 british foreign secretary
055_0232 baemedi ba porofensi ho ncop
055_0234 of access to information act
055_0237 game boy advance
055_0238 episcopal church usa
055_0239 western united states
055_0240 lejwe
055_0243 international astronomical union
055_0244 american nobel laureates
055_0246 treaty organization nato
055_0248 asian financial crisis
055_0249 ebe o nka kilograma e
055_0250 tse ikgethileng tsa kgatello di
055_0251 europe music
055_0255 leondale
055_0260 ancient near east
055_0261 wa setjhaba lawrence mushwana o
055_0262 kiana
055_0263 atlantic slave trade
055_0266 tiisitse hore ha ho hlwahlwa
055_0267 central processing unit
055_0268 day saint movement
055_0270 dikgeong tsa mesebetsi ya sehlopha
055_0272 german air force
055_0274 music awards winners
055_0275 close air support
055_0276 ditlhaloso tsa lengolo la truste
055_0278 american short story
055_0279 international criminal court
055_0280 francisco bay area
055_0281 le katleho ya sepheo sa
055_0282 leano le ona o hlokometse
055_0283 ba lenaneo la ntshetsopele ya
055_0284 e ne e le sebaka
055_0285 tsa palamente di tlameha ho
055_0286 haufi tsa ntshetsopele ya setjhaba
055_0289 atlantic treaty organization
055_0290 new york jets
055_0291 sexually transmitted diseases
055_0292 box office success
055_0293 state university alumni
055_0294 tlameha ho tlatswa ke mokopi
055_0295 le kgahleho bophelong ba motletlebi
055_0296 leng la mahlakore ana a
055_0299 dintho ka mokgwa o sa
055_0300 a kopane le nako eo
055_0301 monyakeng
055_0302 diporofensi di a nahanwa boemong
055_0303 catherine
055_0304 tshebetso tsa lekgetho la kuno
055_0305 native american tribes
055_0306 ho bohlokwa ka ho fetisisa
055_0307 ka baka la sephetho se
055_0309 batho ba habo rona hore
055_0310 war political
055_0311 austrian school economists
055_0312 sa moralo wa puo ho
055_0313 hauhelele
055_0314 motho ofe kapa ofe eo
055_0315 ka moo ho ka kgonehang
055_0316 boramesebetsi ba lokela ho saena
055_0317 hard disk drive
055_0318 human rights record
055_0320 ka mora nako e itseng
055_0321 n g rjuna
055_0323 ya naha e tshwereng motho
055_0325 ice hockey team
055_0327 rona ba ho lwantsha botlokotsebe
055_0328 california state university
055_0329 david
055_0331 states district court
055_0332 lokela ho phatlalatsa ditokomane hanghang
055_0336 tlosa pompo pele ba ilo
055_0337 ya tswelang pele ka mosebetsi
055_0341 aterese le nomoro ya mohala
055_0342 professional american football
055_0345 american musical theatre
055_0346 hloleha ho etsa jwalo ho
055_0347 efe kapa efe ya yona
055_0348 social democratic party
055_0350 northern mariana islands
055_0351 dikokwanyana ka thibelo ya mefuta
055_0355 republican party united
055_0356 sebaka moo sepudutsi se ke
055_0359 ya seteraeke kapa ho notlellwa
055_0360 nna ha etsahala hore o
055_0363 bethal
055_0364 mokga oo a etsang kopo
055_0365 ka puo la afrika borwa
055_0366 ho ngodisa khampani e poraefete
055_0368 ho etsa diteko tsa hiv
055_0370 a mmalwa ho ya dibekeng
055_0372 monetary fund imf
055_0373 mekgatlo e adimanang ka tjhelete
055_0374 ka rakonteraka o na le
055_0375 boholo ba nako e etsang
055_0378 jwalo ka o motjha mme
055_0379 tsamaiso ya sehlopha sa boithuto
055_0380 marcel
055_0381 di ka romelwa ofising efe
055_0382 high middle ages
055_0383 ho sebedisa thaere e kgolwanyane
055_0384 lengolo la bopaki la phytosanitary
055_0387 make extensive use
055_0388 e leng commission for conciliation
055_0389 palestinian national authority
055_0390 united states declaration
055_0392 phasepoto ya hao ya afrika
055_0394 early morning hours
055_0395 mafelong a kgwedi e nngwe
055_0396 hang ka selemo ka mora
055_0398 video game developers
055_0401 ferry
055_0402 union member states
055_0405 e felletseng ya kgatiso tsa
055_0406 sound
055_0408 ho ya ka palo ya
055_0410 extension
055_0413 internal combustion engine
055_0414 comic book series
055_0415 tlhahisoleseding e fumanwe bukaneng ya
055_0417 nna tsa kgannela tshenyong e
055_0418 le tumello e ngotsweng fatshe
055_0419 winter olympic games
055_0421 essential fatty acids
055_0422 folaga e ntle ka ho
055_0426 chinese communist party
055_0430 missing living people
055_0431 ya hao e tla lekolwa
055_0433 di ka qojwang ka teng
055_0434 tshwanela ho etsa kopo ya
055_0435 royal dutch shell
055_0436 states unemployment rate
055_0437 ya tlhaselo e eso fihle
055_0442 ya south african revenue service
055_0445 petroleum exporting countries
055_0446 ke mohlodi wa bohlokwa wa
055_0447 dubious date april
055_0448 seetebosigo
055_0449 atlantic
055_0450 bang ba tlosa pompo pele
055_0452 united states began
055_0453 phetoho efe kapa efe e
055_0456 tshenyo e kgolo dimeleng tse
055_0457 north west company
055_0458 hloka bokgoni ba ho nehelana
055_0459 hloka bokgoni ba ho phetha
055_0460 ya hao setatementeng sa banka
055_0462 ludwig von mises
055_0463 fact date july
055_0464 etsa diketso tse hlabisang dihlong
055_0466 ho hloleha ho etsa jwalo
055_0468 sena se tla ba le
055_0470 samuel's
055_0471 eo ho dumellanweng ka yona
055_0472 frank lloyd wright
055_0475 nyetsweng eo mohatsae e leng
055_0477 pope benedict
055_0479 ya ba mmalwa e ngodisitsweng
055_0480 ho kenyelletswa le ditaba tse
055_0481 halleck
055_0482 moo e leng hore ho
055_0484 kansas city royals
055_0485 institjhute
055_0486 security assistance force
055_0488 lokela ho tlatswa ke bajalefa
055_0489 clarify date march
055_0490 ho bonahala eka ha ho
055_0492 kopo ya ho ngodisa khampani
055_0494 average life expectancy
055_0495 e netefaditsweng ya bukana ya
055_0498 sa silafatsa phepelo ya metsi
055_0499 e tshwanetse ho phethwa ka
055_0501 united states army
055_0502 mtv video music
055_0504 late twentieth centuryodowska curie
055_0505 ho etsa qeto mabapi le
055_0506 lekgotla la afrika borwa la
055_0507 ya moithuti e le yona
055_0509 test ban treaty
055_0510 e nngwe ho ya ho
055_0511 international financial institutions
055_0512 mohahamoriti
055_0513 states presidential candidates
055_0515 ke e nngwe ya dintlha
055_0516 bonaparte
055_0518 o loketseng tlhahiso ya dijothollo
055_0520 ya ka maemo a amohelehileng
055_0521 tswang dipuong tsa sehlopha sa
055_0522 seteisheneng sa mapolesa se haufi
056_0001 cathode ray tube
056_0004 chancellorsville
056_0005 la ditaba tsa lehae hore
056_0007 fact date march
056_0008 e fumaneha ka potlako weposaeteng
056_0009 ho behela taelo ka thoko
056_0010 o na le diterekere le
056_0011 tshebedisano e kwetsweng e lefa
056_0012 ditaba tsena di nkilwe thutong
056_0013 mabapi le ho sebedisa poone
056_0014 lenane la batho ba e
056_0017 ho fanwa ka sona ka
056_0018 saense ya tlhaho dikri diploma
056_0019 sepolesa sa aforikaborwa e lefe
056_0020 palestine liberation organization
056_0022 kopi e tiiseditsweng ya bukana
056_0023 federal trade commission
056_0024 le reng limited le tla
056_0025 motho ofe kapa ofe a
056_0028 setsi se haufi sa mesebetsi
056_0029 states environmental protection
056_0030 butlebutle ka mokgwa o ke
056_0031 laesense ya boditjhaba ya ho
056_0032 indastering e batsi ya temo
056_0034 banka
056_0035 harry
056_0036 leqephe la pele la foromo
056_0037 tlhahiso ya poone le soneblomo
056_0038 tlhokeho ya mosebetsi wa ho
056_0040 a ka nna a baka
056_0041 sapoto jwalo ka ha e
056_0042 potter's
056_0043 ya ho ba teng ha
056_0044 ke ema ka pela lona
056_0045 award winning authors
056_0046 national science foundation
056_0047 ho etsa kopo ya taelo
056_0048 tlhokomelo mabapi le tshebediso e
056_0049 lokile pele o etsa kopo
056_0050 sa witblits se neng se
056_0051 golden globe film
056_0052 monroe
056_0055 october
056_0056 tlamehile maoto le matsoho ho
056_0059 baheno
056_0060 durban
056_0061 ya mobu bakeng sa ntshetsopele
056_0064 wa afrika borwa a ka
056_0065 borwa e se nang morabe
056_0069 moo motho a fumanang kuno
056_0070 united states senate
056_0073 dutch east india
056_0076 mabitso a bonkgetheng bakeng sa
056_0078 recreation
056_0080 league baseball team
056_0081 feteng dikgwedi tse tharo kapa
056_0088 north germanic languages
056_0104 motho e mong ya nang
056_0105 nuclear test ban
056_0107 miller's
056_0108 south asian association
056_0109 le ho tempuwa ke mosebeletsi
056_0112 bridgeport
056_0113 mang ya ikemiseditseng ho nehelana
056_0115 ozone layer protection
056_0120 ya pele e neng e
056_0122 ka bonyane dipuo tse tsheletseng
056_0125 bophelong
056_0126 senyesemane
056_0129 le ho tloswa ha matlakala
056_0131 ho tshwarella nako e telele
056_0136 court ha e le traste
056_0137 screen actors guild
056_0138 nelson mandela le thabo mbeki
056_0144 american male singers
056_0145 centrally planned economy
056_0147 tumello e ngotsweng fatshe e
056_0148 ba ka hodimo ho dilemo
056_0149 grammatical
056_0151 empire
056_0156 numeric character references
056_0158 central
056_0161 ka dikopi tse tiiseleditsweng tsa
056_0164 citation needed april
056_0168 e le hore ba tle
056_0171 karolong e ka tlase ya
056_0174 nako e hlokolosi e ka
056_0177 russian civil war
056_0178 good
056_0179 tsa larvae hammoho le mahe
056_0180 buddhism
056_0181 ho ntsha raporoto ya radiology
056_0182 saint john river
056_0186 modern orthodox judaism
056_0187 early church fathers
056_0190 bilateral immunity agreement
056_0192 strong nuclear force
056_0193 military coup
056_0194 supreme court ruled
056_0195 united states geological
056_0197 ya tumello ya ho romela
056_0198 wa afrika borwa ya hlokahetseng
056_0200 best supporting actor
056_0201 tailor
056_0202 original game boy
056_0203 electron transport chain
056_0205 north west company
056_0208 randburg
056_0209 magnetic resonance imaging
056_0210 motho a tshwerweng ho yona
056_0214 science fiction novel
056_0215 army air corps
056_0216 e tlang tse mabapi le
056_0220 hall
056_0221 van der waals
056_0226 articles including recorded
056_0231 dingane
056_0233 kgatello ya tshebediso ya mefuta
056_0234 blood
056_0235 international atomic energy
056_0236 e tswang ho registrar of
056_0238 eo re neng re e
056_0245 bakeng sa nako e kgutshwane
056_0248 mahola e tshwanetse ho etswa
056_0250 motho ka mong o tlamehile
056_0252 leng se bolelang hore ho
056_0253 akhaonteng e latelang ya banka
056_0255 e nang le share capital
056_0257 mabapi le tlhahiso ya koro
056_0259 e nngwe ya tsona e
056_0260 e ne e se e
056_0261 common law jurisdictions
056_0262 holy hand grenade
056_0264 le dipehelo tse ding tse
056_0265 golden globe winners
056_0266 metsimaholo
056_0267 united states census
056_0270 nakong eo masimo a tlohetsweng
056_0271 european economic area
056_0274 le ho romela ditokomane ho
056_0275 great lakes region
056_0276 congressional gold medal
056_0280 ya ho tswela pele ha
056_0281 average family size
056_0284 ba bangata ba ile ba
056_0286 kopo ya setefikeiti sa ho
056_0289 senqu
056_0294 gibbon
056_0295 bona ba na le tokelo
056_0298 television shows set
056_0300 ya ho lebela ya bopolesa
056_0302 argentina ho ya afrika borwa
056_0306 jwalo ka ha ho hlokeha
056_0312 tjhelete ya hae e kenang
056_0313 best foreign language
056_0317 boqwabi
056_0318 ditaba tse amanang le molao
056_0321 bill
056_0323 bakeng sa nako ya boholo
056_0324 ho na le mefuta e
056_0325 tshebetso ya botsebi ba saense
056_0326 be bonolo ho palama baesekele
056_0330 high seas fleet
056_0332 ya thuso bakeng sa ho
056_0333 ha ho kgethwa dipuo tseo
056_0338 madison square garden
056_0339 bakileng kgatello ya tshebediso ya
056_0344 armoured fighting vehicles
056_0351 mesebetsi e itseng ka ho
056_0352 la afrika borwa la basebetsi
056_0353 free methodist church
056_0354 tikoloho
056_0355 disebediswa tse seng di ile
056_0357 moscow state university
056_0359 maseru
056_0361 hoer leano le phethahale bophelong
056_0362 moo ho ipehilweng ka tsela
056_0364 power parity comparisons
056_0365 ho ba teng ha lenaneo
056_0367 red blood cells
056_0368 bafta winners people
056_0371 american film producers
056_0373 ka ho lekola tswelopele ya
056_0374 lekgotla la ho ntshuwa ha
056_0376 hore mobu o na le
056_0378 ho se na motho ya
056_0380 fifa world cup
056_0381 dikarolo dife kapa dife tse
056_0383 poone le dinawa tsa soya
056_0384 ya ngaka ya diphoofolo ya
056_0386 seng le lefilwe bakeng sa
056_0388 national hockey league
056_0389 united states president
056_0392 le hore se sebetsa jwang
056_0393 primitive recursive functions
056_0394 recent common ancestor
056_0395 mahareng a phato ho fihlela
056_0396 dipeo le dipeo tse hlahang
056_0398 sam
056_0401 afrika borwa ha kopo e
056_0403 formal diplomatic relations
056_0407 law enforcement agencies
056_0410 a na le tokelo ya
056_0413 la dibokonyana tsena tse salang
056_0416 american jewish people
056_0417 efe kapa efe e boletsweng
056_0418 system
056_0419 nako e telele ho tiisitse
056_0422 french west africa
056_0423 mabapi le sehla se tlang
056_0425 randfontein
056_0427 tsa lekgetho di ka phethahatswa
056_0428 july
056_0429 tlasa merero e hlwauweng mona
056_0430 etsa kopo ya ho ngodisa
056_0432 environmental protection agency
056_0433 mang ya ka etsang kopo
056_0434 ngotsweng ya ho ngodisa ofising
056_0436 red blood cells
056_0437 mme hona ho tla ya
056_0438 rala mme o romele ditokomene
056_0439 valhalla
056_0441 a diphoofolo tsa afrika borwa
056_0443 man
056_0444 ba ngodise ho south african
056_0445 african
056_0446 seahelo sa ho lokisa tlhapi
056_0448 mmalwa le traste ditho tsohle
056_0449 motor vehicle manufacturers
056_0451 ka nngwe e na le
056_0452 new york jets
056_0453 se kgethollwe ho ya ka
056_0455 ba lefapha la ditaba tsa
056_0456 seng feela ke ba buang
056_0457 le o mong o na
056_0462 hospital
056_0463 haholo ke moruo wa tsona
056_0464 san francisco giants
056_0465 royal albert hall
056_0466 foreign direct investment
056_0467 junior high school
056_0468 sebedisa tlhahisoleseding e kentsweng ke
056_0472 e sebetswa letsatsing leo e
056_0473 internet protocol suite
056_0474 big bang model
056_0475 american psychiatric association
056_0477 midrand
056_0478 ntshetsopele ya dipeo tsa oli
056_0481 ho se ho kenwe ho
056_0483 history
056_0489 mokgwa wa elektroniki kapa khaontareng
056_0490 ka mokgwa o nepahetseng nakong
056_0492 madison square garden
056_0493 leng le le leng kapa
056_0494 ha fela ho sa ntse
056_0496 sebediswang wa ho phethola mobu
056_0497 thibelang lefu ka mora ketsahalo
056_0498 science fiction hall
056_0499 a hlahisa dikgwebo tsa tsona
056_0501 phahameng ya poone le mmaraka
056_0503 ho sebedisa lebitso le molaong
057_0003 randburg
057_0004 bona ba na le tokelo
057_0007 nakwana ke ho thusa balefi
057_0008 hospital
057_0010 good
057_0013 ho ntsha raporoto ya radiology
057_0017 national hockey league
057_0019 grammatical
057_0021 best foreign language
057_0025 numeric character references
057_0026 magnetic resonance imaging
057_0030 empire
057_0035 proffesor
057_0039 midrand
057_0043 san francisco giants
057_0051 buddhism
057_0063 chancellorsville
057_0074 military coup
057_0079 royal albert hall
057_0086 org wiki wikipedia
057_0092 federal trade commission
057_0105 tshebetso e etsang hore ho
057_0107 primitive recursive functions
057_0112 french west africa
057_0113 television shows set
057_0130 madison square garden
057_0136 ka mora kotulo ya koro
057_0144 fact date august
057_0145 armoured fighting vehicles
057_0151 following world war
057_0153 original game boy
057_0157 tailor
057_0160 miller's
057_0161 tlhokeho ya mosebetsi wa ho
057_0172 van der waals
057_0174 man
057_0177 e nang le share capital
057_0178 united states senate
057_0186 golden globe film
057_0187 efe kapa efe eo ho
057_0193 european economic area
057_0194 complaints
057_0197 ozone layer protection
057_0199 supreme court ruled
057_0201 monroe
057_0203 new york yankees
057_0208 strategic air command
057_0210 a diphoofolo tsa afrika borwa
057_0214 big bang model
057_0217 strong nuclear force
057_0218 power parity comparisons
057_0219 recreation
057_0223 motho a tshwerweng ho yona
057_0225 history
057_0228 nfc championship game
057_0229 hlahisa dijothollo di phahame haholo
057_0233 recent common ancestor
057_0235 makgoweng
057_0242 peo ya ona e ka
057_0244 october
057_0247 bad
057_0251 madison square garden
057_0254 american male singers
057_0258 foreign direct investment
057_0261 sa witblits se neng se
057_0268 united states
057_0278 potter's
057_0286 great lakes region
057_0287 bilateral immunity agreement
057_0292 north germanic languages
057_0309 harry
057_0310 gibbon
057_0312 free methodist church
057_0319 human development index
057_0322 dingane
057_0323 fifa world cup
057_0324 science fiction novel
057_0333 indastering e batsi ya temo
057_0346 hall
057_0347 states environmental protection
057_0349 bridgeport
057_0354 september
057_0355 e tswang ho registrar of
057_0356 cathode ray tube
057_0357 average family size
057_0362 ho na le mefuta e
057_0363 ya pele e neng e
057_0364 ya mobu bakeng sa ntshetsopele
057_0365 junior high school
057_0370 united states geological
057_0371 articles including recorded
057_0372 saint john river
057_0373 formal diplomatic relations
057_0374 maseru
057_0388 sam
057_0394 system
057_0396 centrally planned economy
057_0398 national football team
057_0407 senqu
057_0409 church turing thesis
057_0410 le hore re tle re
057_0423 le ho romela ditokomane ho
057_0427 environmental protection agency
057_0428 modern orthodox judaism
057_0432 screen actors guild
057_0436 fact date march
057_0439 le reng limited le tla
057_0440 american jewish people
057_0445 american film producers
057_0447 russian civil war
057_0448 bakeng sa morwalo o mong
057_0453 internet protocol suite
057_0455 bill
057_0456 new york jets
057_0457 randfontein
057_0462 tse felletseng tsa moo ho
057_0463 lefapheng la kgwebo le indasteri
057_0469 mesebetsi e itseng ka ho
057_0475 motor vehicle manufacturers
057_0480 ba bangata ba ile ba
057_0482 poids et mesures
057_0483 common law jurisdictions
057_0489 central
057_0494 national baseball hall
057_0496 nebula award winning
057_0497 liberal arts college
057_0508 billy
058_0005 laesense ya boditjhaba ya ho
058_0009 potter's
058_0012 ha eba o hloleha ho
058_0018 le reng limited le tla
058_0019 new york yankees
058_0023 miller's
058_0024 tokomane eo o batlang ho
058_0025 nfc championship game
058_0030 dutch east india
058_0031 high seas fleet
058_0034 award winning authors
058_0035 e nang le share capital
058_0037 mahareng a phato ho fihlela
058_0039 ka ntle ya batlang ho
058_0040 ya hae ntle ho lebaka
058_0043 bridgeport
058_0049 monroe
058_0053 ke ke wa kgona ho
058_0056 power parity comparisons
058_0060 magnetic resonance imaging
058_0061 lekala
058_0062 sam
058_0064 ka mokgwa o hlakileng ho
058_0067 common law jurisdictions
058_0069 durban
058_0074 le dipehelo tse ding tse
058_0082 supreme allied commander
058_0084 russian civil war
058_0087 united states president
058_0089 le hore re tle re
058_0090 bragg
058_0091 following world war
058_0093 o neng o rena ditherisanong
058_0095 mesebetsi e itseng ka ho
058_0096 bad
058_0099 july
058_0101 mme re tshepa hore moya
058_0103 poids et mesures
058_0105 moscow state university
058_0114 hore mobu o na le
058_0115 be bonolo ho palama baesekele
058_0116 holy hand grenade
058_0118 american film producers
058_0119 best foreign language
058_0120 bafta winners people
058_0123 hall
058_0124 valhalla
058_0126 federal trade commission
058_0127 ka nngwe e na le
058_0130 tswa ho monga setsha seo
058_0133 south asian association
058_0136 grammatical
058_0139 e tlang tse mabapi le
058_0140 randfontein
058_0141 strategic air command
058_0143 ya ho jala dijothollo tse
058_0145 hartbeespoort
058_0147 european economic area
058_0148 haholo ke moruo wa tsona
058_0151 disebediswa tse seng di ile
058_0153 big bang model
058_0157 ya saense ya lekgotleng la
058_0161 united states senate
058_0162 hangata a na le metso
058_0167 saint john river
058_0168 supreme court ruled
058_0169 bill
058_0171 system
058_0173 electron transport chain
058_0180 ho tshwarella nako e telele
058_0181 red blood cells
058_0184 church turing thesis
058_0193 congressional gold medal
058_0195 central
058_0200 history
058_0208 chancellorsville
058_0211 army air corps
058_0212 aterese ya moo o dulang
058_0215 tlhokeho ya mosebetsi wa ho
058_0225 seng le lefilwe bakeng sa
058_0226 junior high school
058_0233 madison square garden
058_0238 motor vehicle manufacturers
058_0239 motho ka mong o tlamehile
058_0242 taolo ka dikhemikhale le mefuta
058_0244 primitive recursive functions
058_0247 nelson mandela le thabo mbeki
058_0249 united states army
058_0251 citation needed april
058_0253 man
058_0254 l cuin abbr
058_0256 french west africa
058_0260 average family size
058_0262 best supporting actor
058_0264 states environmental protection
058_0265 tshebeletso ya poso e sa
058_0266 boholo ba masimo a hao
058_0269 buddhism
058_0274 cathode ray tube
058_0276 north west company
058_0280 terekere le disebediswa tsa polasing
058_0282 united states
058_0283 moaho wa lekgotla la naha
058_0284 american psychiatric association
058_0294 ngotsweng ya ho ngodisa ofising
058_0296 harry
058_0302 bilateral immunity agreement
058_0304 kamohelo ya ho sebetsa jwalo
058_0308 roman catholic priests
058_0313 screen actors guild
058_0315 united states census
058_0317 kopo ya setefikeiti sa ho
058_0318 jwalo ka ha ho hlokeha
058_0321 ho na le mefuta e
058_0323 fact date august
058_0324 articles including recorded
058_0328 ozone layer protection
058_0335 sapoto jwalo ka ha e
058_0345 good
058_0347 leqephe la pele la foromo
058_0359 recent common ancestor
058_0365 african
058_0367 tsa larvae hammoho le mahe
058_0373 kenngwa ha jine ya bt
058_0378 october
058_0379 golden globe film
058_0381 centrally planned economy
058_0390 maano a tsona ho latela
058_0391 fifa world cup
058_0400 science fiction novel
058_0401 palestine liberation organization
058_0407 league baseball team
058_0408 numeric character references
058_0417 tswela pele ho sebetsa le
058_0418 formal diplomatic relations
058_0421 ho tholwa ha ngwana ka
058_0427 hospital
058_0432 international atomic energy
058_0438 gibbon
058_0439 human development index
058_0448 national football team
058_0450 nna ya haella ka ha
058_0452 national hockey league
058_0453 ho behela taelo ka thoko
058_0456 royal albert hall
058_0457 tse felletseng tsa moo ho
058_0459 american jewish people
058_0461 ba ka hodimo ho dilemo
058_0464 united states geological
058_0466 bakeng sa nako ya boholo
058_0475 original game boy
058_0479 bay
058_0481 military coup
058_0482 tjhelete ya hae e kenang
058_0486 internet protocol suite
058_0488 org wiki wikipedia
058_0489 american male singers
058_0491 madison square garden
058_0492 van der waals
058_0493 september
058_0494 hoer leano le phethahale bophelong
058_0496 naha ya afrika borwa ba
058_0498 golden globe winners
058_0499 fiction television series
058_0500 o tshwanetse ho ba le
058_0501 united states district
058_0502 liberal arts college
059_0001 british foreign secretary
059_0012 pro football hall
059_0015 francisco bay area
059_0017 general public license
059_0023 game boy advance
059_0024 states district court
059_0026 african unity oau
059_0031 grand
059_0040 di ka romelwa ofising efe
059_0043 clarify date march
059_0045 monetary fund imf
059_0046 nobel prize winners
059_0059 roodepoort
059_0063 rapid economic growth
059_0072 lejwe
059_0078 northern mariana islands
059_0081 new testament canon
059_0089 hauhelele
059_0090 ancient near east
059_0093 kansas city royals
059_0097 european union member
059_0100 europe music
059_0103 ho tswela pele ho ya
059_0106 california state university
059_0113 ice hockey team
059_0116 new york jets
059_0125 asian financial crisis
059_0127 transvala
059_0132 bethal
059_0133 early morning hours
059_0137 palestinian national authority
059_0141 major professional sports
059_0145 average life expectancy
059_0146 ke wa qobella molemi ho
059_0149 black sea coast
059_0157 south sandwich islands
059_0158 dilemong tse ngata tse fetileng
059_0163 a dintwa tsa ka malapeng
059_0165 polasi le nang le boleng
059_0167 reef
059_0169 national baseball hall
059_0175 leondale
059_0180 islamic conference oic
059_0181 marcel
059_0187 fact date january
059_0192 liberal arts college
059_0193 american political writers
059_0196 army occupied cypriot
059_0197 functional programming languages
059_0201 ba badudi ba saruri ba
059_0203 united nations high
059_0206 hang ha ho se ho
059_0211 pope benedict
059_0212 west
059_0214 american television actors
059_0217 american musical theatre
059_0223 monyakeng
059_0233 e bile wa bohlokwa ho
059_0234 ford motor company
059_0235 make extensive use
059_0255 monetary fund imf
059_0257 positive real numbers
059_0259 united states declaration
059_0262 grand
059_0263 imperial japanese navy
059_0276 frank lloyd wright
059_0284 close air support
059_0289 old east norse
059_0294 kansas city royals
059_0295 american voice actors
059_0307 ya ho ba teng ho
059_0310 dilemong tse ngata tse fetileng
059_0313 dennilton
059_0314 tse ikgethileng tsa kgatello di
059_0315 austrian school economists
059_0320 science fiction hall
059_0321 united states air
059_0326 hang ha ho se ho
059_0332 dilemong tse mmalwa tse fetileng
059_0336 early morning hours
059_0340 ho fana ka beile le
059_0341 european union member
059_0344 united nations high
059_0348 ludwig von mises
059_0349 samuel's
059_0351 hard disk drive
059_0352 knights grand cross
059_0354 ho bonahala eka ha ho
059_0358 united states dollar
059_0359 union member states
059_0360 war political
059_0363 eldorado
059_0364 ofe kapa ofe wa mmuso
059_0366 memphis
059_0367 american musical theatre
059_0375 lejwe
059_0379 of access to information act
059_0380 international astronomical union
059_0383 new testament canon
059_0384 liberal arts college
059_0386 le hore re kgone ho
059_0391 united states began
059_0392 pimville
059_0398 states unemployment rate
059_0400 ho bohlokwa ka ho fetisisa
059_0401 roodepoort
059_0405 reef
059_0407 northern mariana islands
059_0414 bethal
059_0419 clarify date february
059_0424 motherwell
059_0427 dubious date april
059_0430 palestinian national authority
059_0432 roman catholic archbishops
059_0440 average life expectancy
059_0441 california state university
059_0442 national baseball hall
059_0445 pro football hall
059_0446 hong kong island
059_0447 professional american football
059_0450 old garden roses
059_0451 mane ho isa ho a
059_0453 pope benedict
059_0455 clarify date march
059_0457 national public radio
059_0458 video game developers
059_0459 e bile wa bohlokwa ho
059_0460 south sandwich islands
059_0463 polasi le nang le boleng
059_0465 moo e leng hore ho
059_0475 leondale
059_0482 atlantic treaty organization
059_0484 e ne e le sebaka
059_0486 security assistance force
059_0493 president harry
059_0495 park
059_0498 western european countries
059_0501 army occupied cypriot
059_0515 tlhekelo
059_0519 game boy advance
059_0521 western united states
059_0524 animated television series
059_0527 rephaboliki
059_0531 grisly
059_0532 islamic conference oic
059_0535 sexually transmitted diseases
059_0538 tsa mokgatlo kapa mokgatlo wa
059_0540 nka matsatsi a fihlang ho
059_0542 states district court
059_0548 ya makgulo bakeng sa kgwebo
059_0551 boyce
059_0552 nobel prize winners
060_0001 o neng o rena ditherisanong
060_0002 balemi ba batjha ba ka
060_0003 new york yankees
060_0004 seo o hopotseng ho se
060_0005 ha eba kere e potolohisang
060_0007 l cuin abbr
060_0010 mme re tshepa hore moya
060_0011 e le kgolo ho eo
060_0013 tailor
060_0014 laesense ya boditjhaba ya ho
060_0016 tlhokeho ya mosebetsi wa ho
060_0018 president george
060_0019 setsi se haufi sa mesebetsi
060_0020 nelson mandela le thabo mbeki
060_0021 le ho tloswa ha matlakala
060_0024 motho e mong ya nang
060_0031 moahi wa naha ya afrika
060_0035 red blood cells
060_0039 randburg
060_0040 e nang le share capital
060_0041 boqwabi
060_0043 american film producers
060_0046 convention
060_0047 free methodist church
060_0048 senqu
060_0049 harry
060_0051 nako e telele ho tiisitse
060_0055 provenseng kang ho tla ba
060_0056 following world war
060_0057 buddhism
060_0061 church turing thesis
060_0062 congressional gold medal
060_0063 ya poso e sa risefuwang
060_0064 eighty years war
060_0066 a diphoofolo tsa afrika borwa
060_0067 o tshwanetse ho ba le
060_0071 peo ya ona e ka
060_0072 french west africa
060_0073 le ho tempuwa ke mosebeletsi
060_0074 madison square garden
060_0076 tshebetso e etsang hore ho
060_0077 tikoloho
060_0078 potter's
060_0079 red blood cells
060_0083 internet protocol suite
060_0087 grammatical
060_0089 nakwana ke ho thusa balefi
060_0091 protea
060_0092 new york jets
060_0093 lekala
060_0094 moo motho a fumanang kuno
060_0097 science fiction novel
060_0098 lokile pele o etsa kopo
060_0100 seboka sa naha le lekgotla
060_0101 lebelo la ho potoloha ha
060_0110 kapa dife tse amanang le
060_0111 roman catholic priests
060_0112 holy hand grenade
060_0113 ba bangata ba ile ba
060_0114 disebediswa tse seng di ile
060_0115 golden globe winners
060_0116 mme hona ho tla ya
060_0118 good
060_0119 magnetic resonance imaging
060_0121 aterese ya moo o dulang
060_0124 ho kenngwa tshebetsong ha melao
060_0126 akhaonteng e latelang ya banka
060_0128 supreme allied commander
060_0133 ba lakatsang ho sebetsa jwalo
060_0134 be bonolo ho palama baesekele
060_0136 diprojeke tsa bohlokwa tsa lenaneo
060_0138 le hore se sebetsa jwang
060_0140 rala mme o romele ditokomene
060_0149 jwalo ka ha ho hlokeha
060_0151 ofisi ya lefapha le haufi
060_0152 wa lekgotla la naha la
060_0154 golden globe film
060_0157 sa witblits se neng se
060_0158 lekgotla la ho ntshuwa ha
060_0160 kgone ho tswela pele ka
060_0161 poone le dinawa tsa soya
060_0163 midrand
060_0166 system
060_0167 mokgwa wa elektroniki kapa khaontareng
060_0170 original game boy
060_0171 common law jurisdictions
060_0172 ka nepo le ho boloka
060_0173 october
060_0176 nuclear test ban
060_0177 org wiki wikipedia
060_0178 feta pele hore ho na
060_0182 early church fathers
060_0183 palestine liberation organization
060_0184 ho hlokeha lengolo la tumello
060_0188 ka baka hore a lefiswe
060_0191 sam
060_0195 north west company
060_0197 dingane
060_0198 o ne a atisa ho
060_0201 ka mora kotulo ya koro
060_0203 tlhahiso ya poone le soneblomo
060_0204 indastering e batsi ya temo
060_0205 e tswang ho registrar of
060_0209 american jewish people
060_0211 blood
060_0218 madison square garden
060_0223 big bang model
060_0225 miller's
060_0226 tse ka hodimo tsa mobu
060_0227 ho lefa molato wa hao
060_0228 tlhahiso ya dijothollo mobung o
060_0229 ya rona ya puo le
060_0231 hoer leano le phethahale bophelong
060_0234 le dipehelo tse ding tse
060_0235 kenngwa ha jine ya bt
060_0238 bad
060_0240 mokgatlo o emetseng basebeletsi tumellanong
060_0247 hore mobu o na le
060_0249 sepolesa sa aforikaborwa e lefe
060_0250 junior high school
060_0252 united states
060_0253 monroe
060_0256 september
060_0257 valhalla
060_0264 united states census
060_0268 leng se bolelang hore ho
060_0270 tswela pele ho sebetsa le
060_0275 moscow state university
060_0278 phethahatso ya leano lena e
060_0280 human development index
060_0281 bay
060_0282 great lakes region
060_0284 tsa taolo ka dikhemikhale le
060_0287 o na le diterekere le
060_0289 award winning authors
060_0291 wa afrika borwa a ka
060_0292 motho ya tshwereng thaetlele kapa
060_0293 bakeng sa morwalo o mong
060_0294 gibbon
060_0295 kopo ya setefikeiti sa ho
060_0297 e sebetswa letsatsing leo e
060_0298 electron transport chain
060_0303 di ka etswa hape le
060_0305 strong nuclear force
060_0306 southwestern united states
060_0307 makgoweng
060_0308 royal albert hall
060_0312 rona bo tataiswe haholo ke
060_0313 federal trade commission
060_0316 citation needed april
060_0317 south asian association
060_0320 le hore re tle re
060_0321 moo ho ipehilweng ka tsela
060_0324 motho ka mong o tlamehile
060_0326 lefapheng la kgwebo le indasteri
060_0327 e fumaneha ka potlako weposaeteng
060_0329 ya tumello ya ho romela
060_0330 senyesemane
060_0331 ha re sebetsa mmoho re
060_0334 hospital
060_0335 best supporting actor
060_0336 screen actors guild
060_0337 primitive recursive functions
060_0340 maseru
060_0341 bill
060_0344 recreation
060_0346 foreign direct investment
060_0347 moralo wa leano la puo
060_0349 bafta winners people
060_0351 randfontein
060_0352 formal diplomatic relations
060_0355 television shows set
060_0357 military coup
060_0358 ha eba o hloleha ho
060_0360 ho behela taelo ka thoko
060_0365 ho etsa hore naha ya
060_0378 national science foundation
060_0380 la afrika borwa la basebetsi
060_0382 american psychiatric association
060_0383 etsa hore balemi ba kgone
060_0384 pheta tshebetso ena makgetlo a
060_0387 wa etsa tshebetso tsa kgwebisano
060_0388 united states president
060_0393 etsa kopo ya ho ngodisa
060_0394 cathode ray tube
060_0395 bragg
060_0397 leqephe la pele la foromo
060_0398 afrika borwa ba leng mose
060_0399 empire
060_0403 articles including recorded
060_0404 a lehodimo nakong ya tshebediso
060_0405 eo re neng re e
060_0406 leng le le leng kapa
060_0408 le ho romela ditokomane ho
060_0411 recent common ancestor
060_0412 high seas fleet
060_0414 tsa ka hara naha le
060_0415 nfc championship game
060_0418 ke ke wa kgona ho
060_0419 united states senate
060_0423 seahelo sa ho lokisa tlhapi
060_0425 tla romelwa seteisheneng sa mapolesa
060_0426 poids et mesures
060_0427 court ha e le traste
060_0429 re kopa hore o ele
060_0432 la provinse kapa la naha
060_0435 complaints
060_0437 nna ya haella ka ha
060_0438 ka nngwe e na le
060_0440 batlang ho etsa kopo ya
060_0441 ha puo e lahlehelwa ke
060_0445 fiction television series
060_0446 bakileng kgatello ya tshebediso ya
060_0447 best foreign language
060_0449 sa sepolesa sa afrika borwa
060_0450 mabapi le mefuta e metle
060_0451 law enforcement agencies
060_0452 power parity comparisons
060_0455 bilateral immunity agreement
060_0456 boleng ba bophelo ba batho
060_0457 ho ntsha raporoto ya radiology
060_0461 ya ho tswela pele ha
060_0463 russian civil war
060_0464 european economic area
060_0466 bridgeport
060_0468 african
060_0469 ka nna ya boela ya
060_0471 van der waals
060_0472 dikarolo dife kapa dife tse
060_0475 chancellorsville
060_0476 numeric character references
060_0477 lokelang ho fetolelwa bafetoleding ba
060_0480 ya ho jala dijothollo tse
060_0481 saint john river
060_0486 o okina ahu
060_0487 man
060_0488 tla tshwarwa ka mokgwa o
060_0489 proffesor
060_0492 argentina ho ya afrika borwa
060_0495 re tsebang ho sebetsa re
060_0499 borwa e se nang morabe
060_0501 tsa mokgatlo kapa mokgatlo wa
060_0506 mahola ke sera sa pele
060_0508 thibelang lefu ka mora ketsahalo
060_0509 united states district
060_0511 moralo wa tshebetso wa naha
060_0513 national baseball hall
060_0519 science fiction hall
060_0521 ho ngodisa jwalo ka setsebi
060_0522 station
060_0524 liberal arts college
061_0003 recreation
061_0007 potter's
061_0008 tlamehile maoto le matsoho ho
061_0012 internet protocol suite
061_0018 american jewish people
061_0019 golden globe film
061_0023 e tla fapana ka ho
061_0026 russian civil war
061_0030 church turing thesis
061_0031 french west africa
061_0044 history
061_0056 van der waals
061_0058 ya ho tswela pele ha
061_0059 tsosoloso ya boemo ba theshiari
061_0069 man
061_0071 complaints
061_0092 american film producers
061_0093 african
061_0094 junior high school
061_0103 proffesor
061_0106 primitive recursive functions
061_0119 ho tloha sebopehong sa kgale
061_0128 valhalla
061_0136 nfc championship game
061_0137 gibbon
061_0138 federal trade commission
061_0144 mokgatlo o emetseng basebeletsi tumellanong
061_0150 sam
061_0157 north germanic languages
061_0159 roman catholic priests
061_0161 leqephe la pele la foromo
061_0163 convention
061_0164 o motsho le o mosweu
061_0166 ho se ho kenwe ho
061_0168 fiction television series
061_0172 dikarolo dife kapa dife tse
061_0184 seo o hopotseng ho se
061_0197 wa etsa tshebetso tsa kgwebisano
061_0198 hospital
061_0199 ka nngwe e na le
061_0200 united states senate
061_0202 american male singers
061_0207 mahareng a phato ho fihlela
061_0209 ofisi ya lefapha le haufi
061_0211 le o mong o na
061_0217 moahong wa lekgotla la naha
061_0218 ya ho jala dijothollo tse
061_0219 international atomic energy
061_0225 boqwabi
061_0227 peo ya ona e ka
061_0231 o okina ahu
061_0233 united states army
061_0237 centrally planned economy
061_0241 chancellorsville
061_0242 south asian association
061_0244 golden globe winners
061_0246 army air corps
061_0252 states environmental protection
061_0256 magnetic resonance imaging
061_0258 october
061_0262 fifa world cup
061_0269 buddhism
061_0271 tadimilwe thibelo ya tlhodisano le
061_0273 july
061_0274 indastering e batsi ya temo
061_0277 mabitso a bonkgetheng bakeng sa
061_0279 bill
061_0284 best foreign language
061_0289 foreign direct investment
061_0296 american psychiatric association
061_0300 ba ngodise ho south african
061_0302 good
061_0307 following world war
061_0313 united states president
061_0322 tjhelete ya hae e kenang
061_0323 rala mme o romele ditokomene
061_0327 european economic area
061_0330 military coup
061_0333 be bonolo ho palama baesekele
061_0334 strong nuclear force
061_0344 armoured fighting vehicles
061_0346 randburg
061_0350 national football team
061_0353 early church fathers
061_0373 miller's
061_0377 senqu
061_0379 screen actors guild
061_0381 poids et mesures
061_0386 monroe
061_0389 bragg
061_0392 durban
061_0394 lebelo la ho potoloha ha
061_0395 grammatical
061_0401 o neng o rena ditherisanong
061_0403 san francisco giants
061_0409 ba ka hodimo ho dilemo
061_0410 e ne e se e
061_0411 motor vehicle manufacturers
061_0418 free methodist church
061_0437 citation needed april
061_0438 akhaonteng e latelang ya banka
061_0445 harry
061_0448 bilateral immunity agreement
061_0456 electron transport chain
061_0460 united states geological
061_0461 madison square garden
061_0462 jwalo ka ha ho hlokeha
061_0463 power parity comparisons
061_0465 e nang le share capital
061_0466 common law jurisdictions
061_0468 modern orthodox judaism
061_0472 phepelo ya dijo tsa polasing
061_0476 org wiki wikipedia
061_0477 numeric character references
061_0482 system
061_0486 se kgethollwe ho ya ka
061_0491 september
061_0494 kopi e tiiseditsweng ya bukana
061_0495 ozone layer protection
061_0496 average family size
061_0497 a lehodimo nakong ya tshebediso
061_0501 tsa lehae provinseng eo o
061_0503 ho beha leihlo tshebediso ya
061_0507 le moemedi wa afrika borwa
061_0510 united states district
061_0514 clarify date february
061_0517 thibelang lefu ka mora ketsahalo
061_0518 liberal arts college
061_0530 american political writers
062_0001 ya dipuo tsa motswalla tse
062_0002 tsa tlhahlobo tse molaong mme
062_0003 kapa badudi ba saruri ba
062_0005 tshwaneleha le moruo wa tshebetso
062_0008 transvala
062_0009 positive real numbers
062_0010 ya naha e tshwereng motho
062_0013 states district court
062_0014 national baseball hall
062_0015 reef
062_0019 pele ho ka jalwa sejothollo
062_0021 pope benedict
062_0025 boyce
062_0026 tswa dinaheng tsa ka ntle
062_0027 e tshwanetse ho phethwa ka
062_0028 malwetse a pustule a bakwang
062_0029 average life expectancy
062_0031 valence bond theory
062_0032 phemiti ya ditswantle ya bongaka
062_0033 union member states
062_0035 dikokwanyana ka thibelo ya mefuta
062_0036 tiisitse hore ha ho hlwahlwa
062_0038 new york jets
062_0039 army occupied cypriot
062_0042 mabapi le maemo a setjhaba
062_0045 ho etsa diteko tsa hiv
062_0046 war political
062_0047 le kgahleho bophelong ba motletlebi
062_0049 ice hockey team
062_0050 ka moo ho ka kgonehang
062_0052 ya ho tsamaisa tshebeletso ya
062_0053 game boy advance
062_0054 tshebediso e phahameng ya sesebediswa
062_0057 tshenyo e kgolo dimeleng tse
062_0058 republican party united
062_0061 di fetwa ka bohlwahlwa ke
062_0064 hloleha ho etsa jwalo ho
062_0066 islamic conference oic
062_0067 united states government
062_0069 europe music
062_0071 petroleum exporting countries
062_0073 american science fiction
062_0074 nakong ya dikgwedi tsa hlabula
062_0075 a ka nna a fafatswa
062_0077 ho tla nne ho dule
062_0078 test ban treaty
062_0081 catherine
062_0082 religious
062_0083 general public license
062_0085 garrick
062_0086 dikgeong tsa mesebetsi ya sehlopha
062_0087 ha ho ne ho ena
062_0088 pimville
062_0091 ya tlhaselo e eso fihle
062_0092 ya foromo ena e fuwe
062_0093 ho bonahala eka ha ho
062_0094 roodepoort
062_0095 western european countries
062_0096 le haebe ho boletswe ka
062_0097 motherwell
062_0098 rephaboliki
062_0101 close air support
062_0104 dintho ka mokgwa o sa
062_0106 functional programming languages
062_0107 kopo ya phemiti ya phapanyetsano
062_0108 kopo e tlameha ho felehetswa
062_0110 a dintwa tsa ka malapeng
062_0112 larry
062_0115 ludwig von mises
062_0116 latela dipehelo tsa molao wa
062_0117 notable examples include
062_0118 tse tshwanetseng ho elwa hloko
062_0119 tlameha ho balwa ka botebo
062_0120 saense ya lekgotleng la molao
062_0121 phasepoto ya hao ya afrika
062_0122 fact date january
062_0123 ke wa qobella molemi ho
062_0124 management
062_0125 tlhekelo ka letona la bonono
062_0127 ke notary public kapa mokhomishenara
062_0130 president harry
062_0135 boston red sox
062_0136 botoloki ka mohala tsa afrika
062_0137 tse ikgethileng tsa kgatello di
062_0140 tshwanela ho etsa kopo ya
062_0141 ho ya ka palo ya
062_0143 ntlafatsa polokeho le tshireletso ya
062_0144 le nngwe feela afrika borwa
062_0145 o nka kilograma e le
062_0146 open source initiative
062_0147 rona ba ho lwantsha botlokotsebe
062_0148 weposaeteng ya lefapha la temo
062_0149 ho sebedisa thaere e kgolwanyane
062_0150 eldorado
062_0151 moahi wa afrika borwa kapa
062_0152 clarify date march
062_0153 ho qetela la ho sebetsa
062_0154 di ka qojwang ka teng
062_0155 lokela ho phatlalatsa ditokomane hanghang
062_0157 osama bin laden
062_0158 motheo
062_0159 united states district
062_0160 setsheng sa bafu sa poraefete
062_0161 borwa di tlameha ho ngodiswa
062_0162 king james version
062_0163 sexually transmitted diseases
062_0164 mora ho ba kopo ya
062_0165 kopanelo ya boitshwaro bo botle
062_0170 ha eba poone e iswa
062_0174 baemedi ba porofensi ho ncop
062_0175 samuel's
062_0176 ho etsa kopo ya tumello
062_0177 royal dutch shell
062_0178 marcel
062_0179 ofe kapa ofe wa mmuso
062_0180 ho teng ba bang ba
062_0182 seo o lokelang ho se
062_0183 ho thola ngwana ka molao
062_0187 security assistance force
062_0188 american free trade
062_0189 american political writers
062_0190 ka potlako ka ho ya
062_0191 poone ya selelekela mabapi le
062_0192 ho ba motswadi wa letholwa
062_0193 o tshwanetse ho tseba hore
062_0194 ho ngodisa setsi sa tlhahlobo
062_0195 o tshwanetse ho ela hloko
062_0196 leng hore ha ho hlokehe
062_0197 austrian school economists
062_0198 old east norse
062_0199 tsamaiso ya mawatle le mabopo
062_0200 temeng ya saense ya lekgotleng
062_0204 comic book series
062_0205 ya makgulo bakeng sa kgwebo
062_0206 ho ngodisa jwalo ka setsebi
062_0208 re tla dula re ntse
062_0209 le mekgwa e meng ya
062_0210 ka hara naha ya afrika
062_0212 palestinian national authority
062_0213 of access to information act
062_0214 ho ya ho se seng
062_0215 american musical theatre
062_0216 tsa palamente di tlameha ho
062_0218 tone ka nngwe ho tsamaisa
062_0219 ho sebedisa lebitso le molaong
062_0220 lefuweng bakeng sa tokelo ya
062_0221 tumellano ya nakwana le seng
062_0222 e ya weposaeteng ya lefapha
062_0223 haufi tsa ntshetsopele ya setjhaba
062_0224 tse haufi tsa ntshetsopele ya
062_0225 ho fela ho potlakileng ha
062_0226 box office success
062_0227 o lokela ho etsa kopo
062_0228 leondale
062_0229 khopi e netefaditsweng ya bukana
062_0232 dife kapa dife tse amanang
062_0233 latelang di tla kotjwa bakeng
062_0238 ba teng ka dipuo tse
062_0239 mabapi le tshireletso ya dijo
062_0241 boafrika borwa ba rona bo
062_0242 kopo e ka se elwe
062_0243 ho fumana kalafo ya bongaka
062_0244 ba puo e tla hloka
062_0245 california state university
062_0246 hong kong island
062_0247 le hore re kgone ho
062_0248 jwalo ka ha ho bontshitswe
062_0249 hlahisa ditabatabelo le mehopolo ya
062_0251 moralo wa tshebetso wa naha
062_0252 puo ya bajete le setatemente
062_0254 tshebetso tsa lekgetho la kuno
062_0255 ba badudi ba saruri ba
062_0256 e ne e le sebaka
062_0257 leo mobu o leng ho
062_0260 lekala la thuto le thupelo
062_0262 ho thehwa ha diyuniti tsa
062_0263 western united states
062_0265 kiana
062_0266 dikgopo tsa mahlaku hloohong ya
062_0267 a hlahisa dikgwebo tsa tsona
062_0269 lejwe
062_0272 new testament canon
062_0273 romela ka mora nako ditlaleho
062_0274 bang ba tlosa pompo pele
062_0276 phahameng ya poone le mmaraka
062_0277 international astronomical union
062_0279 le tsela e telele eo
062_0280 wa setjhaba lawrence mushwana o
062_0282 ya ditaba tsa lehae kapa
062_0284 tsa fuwa maemo a tlase
062_0285 ba hore khopi ya foromo
062_0287 german air force
062_0289 tsa mokgatlo kapa mokgatlo wa
062_0291 rapid economic growth
062_0292 ho tswela pele ho ya
062_0293 united nations high
062_0294 ya bt papisong le mekgwa
062_0295 national public radio
062_0296 etsa kopo bakeng sa phemiti
062_0297 american voice actors
062_0298 lefatshe la polasi le nang
062_0299 molaotheo wa afrika borwa o
062_0300 mang le a mang a
062_0302 hard disk drive
062_0303 western united states
062_0304 northern mariana islands
062_0305 ancient near east
062_0306 british west indies
062_0308 nobel prize winners
062_0312 le hore ho tle ho
062_0314 pro football hall
062_0315 ho kganna ya borutehi bo
062_0316 asian financial crisis
062_0317 dilemong tse ngata tse fetileng
062_0323 tshwaneleha ka mora nako e
062_0324 billy
062_0325 melbourne football club
062_0327 dubious date april
062_0329 re tla sebetsa ka matla
062_0330 di ka nna tsa fetoha
062_0331 american television actors
062_0332 frank lloyd wright
062_0333 music awards winners
062_0334 nyetseng nyetsweng eo mohatsae e
062_0335 tla neha ba leloko sebaka
062_0336 states unemployment rate
062_0338 mokga oo a etsang kopo
062_0339 grand
062_0341 e bile wa bohlokwa ho
062_0343 khopi ya rasiti e saennweng
062_0344 moo e leng hore ho
062_0345 bethal
062_0348 tlhahisoleseding e fumanwe bukaneng ya
062_0351 ba thupelo ba lokela ho
062_0353 morao ka dilemo tse ngata
062_0354 dikgatiso tsa tshebediso ya dipuo
062_0355 ya ba mmalwa e ngodisitsweng
062_0357 fane ka nomoro ya akhauntu
062_0358 inshorense ya tse sebediswang mobung
062_0359 le ngodisitsweng mona afrika borwa
062_0360 mekgatlo e adimanang ka tjhelete
062_0361 masimo a mang le a
062_0362 hubble space telescope
062_0364 ka hlaloswa ka mokgwa o
062_0365 petroleum exporting countries
062_0366 clarify date february
062_0367 ikopanye le ofisi ya lefapha
062_0370 kansas city royals
062_0371 metsi a ka nnang a
062_0372 batlang ho fumana boahi ba
062_0373 pakeng tsa batho ba babedi
062_0374 lengolo la tumello haeba o
062_0375 letowana
062_0376 ho isa ho tse nne
062_0377 british foreign secretary
062_0378 nka matsatsi a fihlang ho
062_0381 ho kenyelletswa le ditaba tse
062_0382 ha eba o na le
062_0383 aterese le nomoro ya mohala
062_0385 united states began
062_0386 bahlokomedi ba bona ba molao
062_0387 botle le ditabatabelo tsa ditho
062_0388 sefe sa tlhahlobo ya laesense
062_0389 grain sa ya tlhahiso ya
062_0390 moya wa ho etsa dintho
062_0393 tswela pele ka lenaneo la
062_0394 le ho haha setjhaba sa
062_0395 ho itsebisa jwalo ka ntate
062_0396 o be o na le
062_0397 afrika borwa jwalo ka ha
062_0401 le tumello e ngotsweng fatshe
062_0402 ha o a dumellwa ho
062_0403 united states dollar
062_0404 roman catholic archbishops
062_0405 imperial japanese navy
062_0408 hloka tumello e ikgethang e
062_0409 northern
062_0410 foromo ya kopo ka dikopi
062_0411 ka mora nako e itseng
062_0412 mahola ke sera sa pele
062_0414 thibelang lefu ka mora ketsahalo
062_0415 tsamaiso ya sehlopha sa boithuto
062_0416 le moemedi wa afrika borwa
062_0417 grisly
062_0418 la nakwana le lokelwang ho
062_0419 european union member
062_0422 eo ho dumellanweng ka yona
062_0423 ofisi ya iss ya afrika
062_0425 ditlhaloso tsa lengolo la truste
062_0427 ka mokgwa o hlwahlwa ho
062_0429 tlameha ho felehetsa kopo ka
062_0431 united states declaration
062_0432 sebediswang wa ho phethola mobu
062_0433 batshwaruwa
062_0434 yona ha feela le tla
062_0435 sa moralo wa puo ho
062_0436 e poraefete ya ho fihlella
062_0438 george
062_0440 ke sesebediswa se sebetsang ka
062_0441 ho ngodisa khampani e poraefete
062_0442 ka rakonteraka o na le
062_0443 united states navy
062_0444 basebeletsi ba lefapha la ditaba
062_0445 ford motor company
062_0446 american sign language
062_0447 ya ho ba teng ho
062_0448 nang le tokelo ya ho
062_0449 video game developers
062_0450 kopo ya hao e se
062_0451 moo se sa tshwanelang se
062_0452 itseng ntle le ho ama
062_0453 kenya tshebetsong mokgwa wa ho
062_0454 billion years ago
062_0456 motho ofe kapa ofe eo
062_0457 episcopal church usa
062_0458 wa provinse ya bophelo bo
062_0459 liberal arts college
062_0460 high middle ages
062_0461 mananeo a mmuso a ho
062_0462 islamic conference oic
062_0463 ya phemiti ya mosebetsi ya
062_0464 tse ntjha tsa ho banka
062_0465 tsa theko ya sehlahiswa le
062_0466 tse ding tsa dintho tseo
062_0467 ho fana ka beile le
062_0469 dennilton
062_0470 ho fafatsa kgahlanong le mahola
062_0471 fihlwang ho yona ya mohlahisi
062_0472 south sandwich islands
062_0473 knights grand cross
062_0474 ya nka bolelele ba dibeke
062_0475 ya south african revenue service
062_0476 ka modulasetulo wa sehlopha sa
062_0477 ka hara lekgotla la naha
062_0478 black sea coast
062_0479 tlosa pompo pele ba ilo
062_0480 ho feta ka moo ho
062_0481 kopo ya bodulo ba saruri
062_0482 dintlha dife kapa dife tse
062_0483 sena se tla ba le
062_0484 united states air
062_0485 american nobel laureates
062_0486 nyetsweng eo mohatsae e leng
062_0487 ho beha leihlo tshebediso ya
062_0488 nebula award winning
062_0489 dipalopalo
062_0490 old garden roses
062_0491 persian gulf states
062_0493 state university alumni
062_0495 a kopane le nako eo
062_0496 hang ka selemo ka mora
062_0497 hore ditho tsa palamente di
062_0498 tekolo botjha ya ditlwaelo le
062_0499 ya seteraeke kapa ho notlellwa
062_0503 institjhute
062_0504 kuno e phahameng ya dijothollo
062_0505 atlantic slave trade
062_0506 sera
062_0508 jewish american writers
063_0003 ho tholwa ha ngwana ka
063_0007 e le kgolo ho eo
063_0008 mesebetsi efe ya ho mmaraka
063_0011 metsimaholo
063_0012 disebediswa tse seng di ile
063_0013 ho tla etswa ho latela
063_0016 balemi ba batjha ba ka
063_0017 maseru
063_0018 tlamehile maoto le matsoho ho
063_0019 best foreign language
063_0021 feta pele hore ho na
063_0022 ya sefafatsi se fatshe sa
063_0024 free methodist church
063_0025 kgatello ya tshebediso ya mefuta
063_0026 sapoto jwalo ka ha e
063_0028 royal albert hall
063_0031 bao e leng ditho tsa
063_0032 national football team
063_0033 kapa mokgatlo wa nakwana o
063_0034 kapa hofe ho ka bang
063_0035 o ne a atisa ho
063_0036 new york jets
063_0037 hospital
063_0038 nuclear test ban
063_0039 tswela pele ho sebetsa le
063_0040 church turing thesis
063_0041 ka ho lekola tswelopele ya
063_0042 tse ding le tse ding
063_0043 poone le dinawa tsa soya
063_0044 hore ba kgone ho ba
063_0049 tjhelete ya hae e kenang
063_0051 l cuin abbr
063_0052 bakeng sa nako e kgutshwane
063_0053 lekala
063_0054 a na le dijo tse
063_0055 lokile pele o etsa kopo
063_0056 nelson mandela le thabo mbeki
063_0059 ntshetsopele ya dipeo tsa oli
063_0060 ntate wa ngwana ya tswetsweng
063_0062 madison square garden
063_0064 ya kopo ofising e haufi
063_0065 van der waals
063_0066 le eneji le la dikgwebo
063_0067 hangata a na le metso
063_0073 kopo ya setefikeiti sa ho
063_0074 rala mme o romele ditokomene
063_0076 leng le le leng kapa
063_0079 man
063_0080 seahelo sa ho lokisa tlhapi
063_0081 october
063_0082 e mabapi le maemo a
063_0083 jwalo ka ha ho hlokeha
063_0084 united states census
063_0085 kgothalletsa ka matla tshebediso ya
063_0086 ka mokgwa o sa tlwaelehang
063_0087 ho kenngwa tshebetsong ha melao
063_0090 strong nuclear force
063_0091 randfontein
063_0093 ha eba kere e potolohisang
063_0094 kgone ho tswela pele ka
063_0095 fact date august
063_0096 tsitsitseng mmusong maemong le ha
063_0097 la afrika borwa la basebetsi
063_0100 feteng dikgwedi tse tharo kapa
063_0102 tse felletseng tsa moo ho
063_0104 tailor
063_0108 banka
063_0110 le ho romela ditokomane ho
063_0115 peo ya ona e ka
063_0120 mmalwa le traste ditho tsohle
063_0122 rona bo tataiswe haholo ke
063_0123 e nngwe ya tsona e
063_0124 e nang le share capital
063_0125 federal trade commission
063_0126 ha eba o hloleha ho
063_0127 army air corps
063_0128 hartbeespoort
063_0130 league baseball team
063_0133 afrika borwa ba leng mose
063_0136 kopi e tiiseditsweng ya bukana
063_0138 le hore re tle re
063_0139 motor vehicle manufacturers
063_0140 ba lefapha la ditaba tsa
063_0141 poids et mesures
063_0143 nfc championship game
063_0144 fact date march
063_0145 ho se ho kenwe ho
063_0147 pholisi ya naha ya batjha
063_0150 law enforcement agencies
063_0151 miller's
063_0152 bill
063_0154 protea
063_0155 ho lefa molato wa hao
063_0156 durban
063_0159 tlasa bolaodi ba mmuso wa
063_0163 le o mong o na
063_0164 bona ba na le tokelo
063_0166 states environmental protection
063_0167 ka ntle ya batlang ho
063_0169 gibbon
063_0171 ya tshwereng thaetlele kapa monga
063_0173 united states senate
063_0180 roman catholic priests
063_0181 manejara wa lebatowa a ananela
063_0183 tse ka hodimo tsa mobu
063_0184 mokgwa wa elektroniki kapa khaontareng
063_0185 average family size
063_0192 fiction television series
063_0193 ba bangata ba nang le
063_0195 le reng limited le tla
063_0196 setifikeiti sa tswalo sa afrika
063_0197 tsa lekgetho di ka phethahatswa
063_0198 lekgotla la ho ntshuwa ha
063_0201 south asian association
063_0202 ha fela ho sa ntse
063_0203 french west africa
063_0204 phepelo ya dijo tsa polasing
063_0207 ba ka hodimo ho dilemo
063_0209 e na le boikarabelo ba
063_0210 tshebedisano e kwetsweng e lefa
063_0211 red blood cells
063_0213 citation needed april
063_0216 modern orthodox judaism
063_0217 bridgeport
063_0218 nna ya haella ka ha
063_0220 john
063_0222 mamelodi
063_0225 american film producers
063_0226 hore ditokomane tsa mmuso ha
063_0227 setefikeiti sa boingodiso ba koloi
063_0228 ke ema ka pela lona
063_0229 monroe
063_0230 court ha e le traste
063_0231 mabapi le tlhahiso ya koro
063_0233 golden globe winners
063_0234 ya ngaka ya diphoofolo ya
063_0235 ho tshwarella nako e telele
063_0236 se fetileng sa hlabula e
063_0238 harry
063_0241 recent common ancestor
063_0242 television shows set
063_0243 e tswang ho registrar of
063_0245 american jewish people
063_0246 boholo ba masimo a hao
063_0247 ka hara naha le tla
063_0248 pheta tshebetso ena makgetlo a
063_0252 potter's
063_0254 ntswaki
063_0255 european economic area
063_0257 ozone layer protection
063_0259 efe kapa efe eo ho
063_0260 early church fathers
063_0261 ya thuso bakeng sa ho
063_0262 cathode ray tube
063_0266 magnetic resonance imaging
063_0269 hlahisa dijothollo di phahame haholo
063_0271 kontane kapa ka tjheke e
063_0272 high seas fleet
063_0273 lefapheng la kgwebo le indasteri
063_0274 ya hae ntle ho lebaka
063_0275 july
063_0276 ka morero wa ho matlafatsa
063_0277 saint john river
063_0278 lokelang ho fetolelwa bafetoleding ba
063_0279 sireletsa le ho matlafatsa botsebi
063_0281 hodimo ho moo ba tla
063_0282 diminerale kapa mahakwe a bohlokwa
063_0284 screen actors guild
063_0286 ho etsa hore naha ya
063_0288 military coup
063_0289 tokomane eo o batlang ho
063_0291 supreme court ruled
063_0298 mme hona ho tla ya
063_0299 ho etsa kopo ya taelo
063_0300 akhaonteng e latelang ya banka
063_0301 mang ya ikemiseditseng ho nehelana
063_0302 san francisco giants
063_0303 tsa larvae hammoho le mahe
063_0304 borwa e se nang morabe
063_0305 new york yankees
063_0306 electron transport chain
063_0308 ho hlokeha lengolo la tumello
063_0309 convention
063_0310 primitive recursive functions
063_0312 o motsho le o mosweu
063_0315 bay
063_0316 ka ba ka mokgwa wa
063_0317 following world war
063_0323 hore menyenyetsi e mabapi le
063_0327 ho se na motho ya
063_0328 terekere le disebediswa tsa polasing
063_0329 motho a tshwerweng ho yona
063_0330 seboka sa naha le lekgotla
063_0331 setsi se haufi sa mesebetsi
063_0332 united states army
063_0334 united states president
063_0335 ka mokgwa o hlakileng ho
063_0337 org wiki wikipedia
063_0338 midrand
063_0340 phethahatso ya leano lena e
063_0342 e tla fapana ka ho
063_0343 seng le lefilwe bakeng sa
063_0344 holy hand grenade
063_0345 ho tloha sebopehong sa kgale
063_0347 batho
063_0349 chancellorsville
063_0350 dipeo le dipeo tse hlahang
063_0351 grammatical
063_0352 history
063_0353 etsa hore balemi ba kgone
063_0354 valhalla
063_0355 proffesor
063_0357 buddhism
063_0358 taolo ka dikhemikhale le mefuta
063_0360 ngotsweng ya ho ngodisa ofising
063_0361 moaho wa lekgotla la naha
063_0363 ke molaodi kakaretso kapa o
063_0364 tlasa merero e hlwauweng mona
063_0365 golden globe film
063_0367 president george
063_0368 ha ho kgethwa dipuo tseo
063_0369 formal diplomatic relations
063_0370 sam
063_0374 power parity comparisons
063_0376 september
063_0377 ha puo e lahlehelwa ke
063_0380 ho suthisa ka ho ya
063_0383 makgoweng
063_0384 le ho tempuwa ke mosebeletsi
063_0386 naha ya afrika borwa kapa
063_0387 kamohelo ya ho sebetsa jwalo
063_0388 ba lakatsang ho sebetsa jwalo
063_0389 north west company
063_0390 ba ngodise ho south african
063_0391 moahong wa lekgotla la naha
063_0392 wa etsa tshebetso tsa kgwebisano
063_0393 indastering e batsi ya temo
063_0397 award winning authors
063_0398 african
063_0399 tse phahameng tsa taolo ka
063_0401 e tlang tse mabapi le
063_0402 human development index
063_0404 centrally planned economy
063_0405 tlhahiso e tswetseng pele ya
063_0409 ya ho tswela pele ha
063_0410 best supporting actor
063_0411 russian civil war
063_0414 etsa kopo ya ho ngodisa
063_0415 tla kenyeletsa bonyane thuto e
063_0418 united states
063_0419 madison square garden
063_0420 american psychiatric association
063_0422 la provinse kapa la naha
063_0423 ya pele e neng e
063_0424 ka nepo le ho boloka
063_0425 north germanic languages
063_0428 eo re neng re e
063_0429 ho ntse ho na le
063_0432 hall
063_0433 moo ho ipehilweng ka tsela
063_0434 o tshwanetse ho ba le
063_0436 complaints
063_0437 nako e hlokolosi e ka
063_0438 senqu
063_0439 numeric character references
063_0440 lekgotleng la dinyewe ho tla
063_0443 randburg
063_0446 great lakes region
063_0448 international atomic energy
063_0449 ya ho ba teng ha
063_0450 common law jurisdictions
063_0453 supreme allied commander
063_0455 motho ya tshwereng thaetlele kapa
063_0456 national hockey league
063_0459 congressional gold medal
063_0460 bilateral immunity agreement
063_0461 haholo ke moruo wa tsona
063_0462 mabitso a bonkgetheng bakeng sa
063_0463 leng se bolelang hore ho
063_0464 leqephe la pele la foromo
063_0468 bad
063_0469 empire
063_0470 ka tsela e ke keng
063_0471 seo a lokelang ho se
063_0475 ka baka hore a lefiswe
063_0476 tshebetso ya botsebi ba saense
063_0477 ha eba poone e sa
063_0480 dutch east india
063_0481 original game boy
063_0483 tsebisa ka ho o ngolla
063_0485 tikoloho
063_0486 ho tshwasa ka palo e
063_0487 articles including recorded
063_0489 a diphoofolo tsa afrika borwa
063_0490 bragg
063_0492 ditaba tsena di nkilwe thutong
063_0493 eighty years war
063_0494 tla romelwa seteisheneng sa mapolesa
063_0496 fifa world cup
063_0497 recreation
063_0498 mabapi le mefuta e metle
063_0499 moscow state university
063_0500 tsa ka hara naha le
063_0502 ya naha e tshwereng motho
063_0504 roman catholic archbishops
063_0506 molaotheo wa afrika borwa o
063_0508 theko ya sehlahiswa le bongata
063_0509 valence bond theory
063_0510 ya south african revenue service
063_0511 tse ka hodimo ho tse
063_0512 tshenyo e kgolo dimeleng tse
063_0513 petroleum exporting countries
063_0517 mane ho isa ho a
063_0519 high middle ages
063_0520 ya tse romellwang ka ntle
063_0522 nakong ya dikgwedi tsa hlabula
063_0524 palestinian national authority
063_0526 motheo
063_0533 ka mora nako e itseng
063_0536 tshebediso e sa lokang ya
063_0537 hubble space telescope
063_0538 re tla dula re ntse
063_0542 o lokela ho etsa kopo
063_0543 united states navy
064_0001 ho ya ka palo ya
064_0003 valence bond theory
064_0004 ho ba motswadi wa letholwa
064_0005 ke sesebediswa se sebetsang ka
064_0006 aung san suu
064_0007 kgannelang tlhaselong e eketsehang ya
064_0008 fact date january
064_0009 pakeng tsa batho ba babedi
064_0011 rona ba ho lwantsha botlokotsebe
064_0012 malwetse a pustule a bakwang
064_0014 united states government
064_0015 ena ke e nngwe ya
064_0018 tse seng di ile tsa
064_0019 ba thupelo ba lokela ho
064_0020 of access to information act
064_0023 sa moralo wa puo ho
064_0024 dilemong tse mmalwa tse fetileng
064_0027 ya nka bolelele ba dibeke
064_0028 war political
064_0031 hard disk drive
064_0034 ho bohlokwa ka ho fetisisa
064_0035 ba ratang naha ya habo
064_0036 open source initiative
064_0037 meade
064_0040 larry
064_0041 ka modulasetulo wa sehlopha sa
064_0042 liberal arts college
064_0044 motheo
064_0045 roodepoort
064_0046 bang ba tlosa pompo pele
064_0047 new testament canon
064_0048 weposaeteng ya lefapha la temo
064_0051 le kgahleho bophelong ba motletlebi
064_0053 dikgeong tsa mesebetsi ya sehlopha
064_0054 mekgatlo e adimanang ka tjhelete
064_0055 ha eba poone e iswa
064_0056 transvala
064_0058 dennilton
064_0059 le nngwe feela afrika borwa
064_0060 music awards winners
064_0061 mabapi le tshireletso ya dijo
064_0062 mokga oo a etsang kopo
064_0063 a hlahisa dikgwebo tsa tsona
064_0065 hubble space telescope
064_0067 diporofensi di a nahanwa boemong
064_0069 states unemployment rate
064_0070 saense ya lekgotleng la molao
064_0072 american science fiction
064_0076 tshebediso e phahameng ya sesebediswa
064_0077 western united states
064_0079 ho thehwa ha diyuniti tsa
064_0081 ha ho ne ho ena
064_0082 tse ikgethileng tsa kgatello di
064_0083 o tshwanetse ho ela hloko
064_0084 ya ho tsamaisa tshebeletso ya
064_0086 le moemedi wa afrika borwa
064_0088 a sa siya wili e
064_0089 tsa tlhahlobo tse molaong mme
064_0090 tsamaiso ya sehlopha sa boithuto
064_0091 general public license
064_0093 united states air
064_0095 jwalo ka ha ho bontshitswe
064_0096 ba le seabo ha basadi
064_0097 ya grain sa ya tlhahiso
064_0098 video game developers
064_0099 latela dipehelo tsa molao wa
064_0100 kenya tshebetsong mokgwa wa ho
064_0102 motherwell
064_0105 nyetseng nyetsweng eo mohatsae e
064_0106 bakeng la tsebo ya mosebetsi
064_0107 ya tlhahisoleseding tshebetsong ya toka
064_0108 tse tshwanetseng ho elwa hloko
064_0109 eo ho dumellanweng ka yona
064_0112 boston red sox
064_0115 american political writers
064_0116 union member states
064_0117 ntle mofuta wa hlapi o
064_0119 re tla sebetsa ka matla
064_0122 german air force
064_0123 lefuweng bakeng sa tokelo ya
064_0124 ho fana ka beile le
064_0125 yona ha feela le tla
064_0126 london
064_0127 ya hao e tla lekolwa
064_0129 garrick
064_0130 o tshwanetse ho tseba hore
064_0131 tse ka hodimo ho tse
064_0132 petroleum exporting countries
064_0133 leano le ona o hlokometse
064_0134 puo ya bajete le setatemente
064_0136 tsa diporofensi di a nahanwa
064_0137 tswa dinaheng tsa ka ntle
064_0138 monyakeng
064_0140 united states district
064_0141 european union member
064_0143 tsa fuwa maemo a tlase
064_0144 american television actors
064_0145 cognitive behavioral therapy
064_0146 moya wa ho etsa dintho
064_0148 re tla dula re ntse
064_0150 fane ka nomoro ya akhauntu
064_0151 atlantic
064_0152 tlhahisoleseding e fumanwe bukaneng ya
064_0156 ho fumana kalafo ya bongaka
064_0160 a kopane le nako eo
064_0161 united nations high
064_0164 functional programming languages
064_0165 lokela ho lefa lekgetho la
064_0167 united states government
064_0168 tone ka nngwe ho tsamaisa
064_0169 of access to information act
064_0171 ho thehwa ha diyuniti tsa
064_0173 ke mang ya ka etsang
064_0174 nakong ya dikgwedi tsa hlabula
064_0175 mane ho isa ho a
064_0179 leondale
064_0181 western united states
064_0183 national baseball hall
064_0188 box office success
064_0192 ofisi ya iss ya afrika
064_0194 united states began
064_0195 kapa ho hloka bokgoni ba
064_0196 british foreign secretary
064_0200 ice hockey team
064_0201 ya phemiti ya mosebetsi ya
064_0202 le teng ka nako tsohle
064_0204 motherwell
064_0206 ancient near east
064_0208 lekala la thuto le thupelo
064_0209 borwa di tlameha ho ngodiswa
064_0210 atlantic treaty organization
064_0215 ba hore khopi ya foromo
064_0216 animated television series
064_0217 ya tlhaselo e eso fihle
064_0218 united states district
064_0221 pro football hall
064_0222 kapa badudi ba saruri ba
064_0224 clarify date march
064_0225 roman catholic archbishops
064_0226 ka hara lekgotla la naha
064_0227 wa batswadi kapa mohlokomedi wa
064_0229 rapid economic growth
064_0230 hlalositsweng bakeng sa ditjhelete tse
064_0231 ba puo e tla hloka
064_0234 hard disk drive
064_0235 theko ya oli e tala
064_0236 haufi tsa ntshetsopele ya setjhaba
064_0238 re tla tswela pele ka
064_0239 ho sebedisa lebitso le molaong
064_0241 george
064_0242 nobel prize winners
064_0243 le moemedi wa afrika borwa
064_0244 marcel
064_0245 open source initiative
064_0250 ya tse romellwang ka ntle
064_0251 notable examples include
064_0253 ba thupelo ba lokela ho
064_0254 tse ikgethileng tsa kgatello di
064_0255 kgannelang tlhaselong e eketsehang ya
064_0257 samuel's
064_0258 etsa kopo bakeng sa phemiti
064_0259 war political
064_0260 memphis
064_0263 pope benedict
064_0264 le ngodisitsweng mona afrika borwa
064_0265 moo e leng hore ho
064_0267 roodepoort
064_0268 khopi e netefaditsweng ya bukana
064_0269 old garden roses
064_0270 weposaeteng ya lefapha la temo
064_0271 ho tswa ho moabi ya
064_0272 bo botjha le ho sebedisa
064_0277 di ka nna tsa fetoha
064_0278 kgothalletswa ho ithuta dipuo tse
064_0280 sa ntsaneng a le manyane
064_0281 austrian school economists
064_0284 ba hore khopi ya foromo
064_0285 kapa ho hloka bokgoni ba
064_0287 fact date july
064_0288 sena se ka qetella ka
064_0289 episcopal church usa
064_0292 e ne e le sebaka
064_0293 e ya weposaeteng ya lefapha
064_0297 national baseball hall
064_0299 new york jets
064_0302 tse ka hodimo ho tse
064_0303 ya tlhaselo e eso fihle
064_0305 inshorense ya tse sebediswang mobung
064_0306 roman catholic archbishops
064_0311 functional programming languages
064_0312 ho etsa diteko tsa hiv
064_0314 western european countries
064_0318 re tla dula re ntse
064_0319 bang ba tlosa pompo pele
064_0321 clarify date february
064_0322 tshebetso tsa lekgetho la kuno
064_0324 mane ho isa ho a
064_0325 monyakeng
064_0326 close air support
064_0328 religious
064_0329 billy
064_0333 garrick
064_0334 ka puo ya kgetho ya
064_0335 marcel
064_0336 dintho ka mokgwa o sa
064_0337 comic book series
064_0338 etsa kopo bakeng sa phemiti
064_0339 united states began
064_0340 masimo a mang le a
064_0344 tsa tlhahlobo tse molaong mme
064_0345 ho kganna ya borutehi bo
064_0347 islamic conference oic
064_0348 ho ba motswadi wa letholwa
064_0350 american voice actors
064_0351 park
064_0354 leondale
064_0356 fane ka nomoro ya akhauntu
064_0357 a sa siya wili e
064_0358 hubble space telescope
064_0360 united states dollar
064_0362 a ka nna a fafatswa
064_0363 london
064_0365 western united states
064_0366 le katleho ya sepheo sa
064_0368 ya foromo ena e fuwe
064_0369 tshwaneleha le moruo wa tshebetso
064_0371 la nakwana le lokelwang ho
064_0373 le hore re kgone ho
064_0374 states unemployment rate
064_0375 boston red sox
064_0379 ford motor company
064_0381 mekgatlo e adimanang ka tjhelete
064_0382 nobel prize winners
064_0383 ancient near east
064_0384 lekala la thuto le thupelo
064_0390 random access memory
064_0394 president harry
064_0397 game boy advance
064_0400 aung san suu
064_0404 american science fiction
064_0406 europe music
064_0407 jwalo ka ha ho bontshitswe
064_0408 united states district
064_0409 american sign language
064_0410 ludwig von mises
064_0411 tse ding tsa dintho tseo
064_0412 extension
064_0414 royal dutch shell
064_0415 e bile wa bohlokwa ho
064_0418 rapid economic growth
064_0419 tone ka nngwe ho tsamaisa
064_0422 ya dipuo tsa motswalla tse
064_0423 dubious date april
064_0425 hong kong island
064_0434 a dintwa tsa ka malapeng
064_0436 sound
064_0437 tlhahisoleseding e fumanwe bukaneng ya
064_0443 northern mariana islands
064_0445 atlantic
064_0446 ho ngodisa setsi sa tlhahlobo
064_0447 le tumello e ngotsweng fatshe
064_0448 motherwell
064_0450 bakeng la tsebo ya mosebetsi
064_0452 puo ya bajete le setatemente
064_0454 kopo e ka se elwe
064_0456 united states navy
064_0459 re tla tswela pele ka
064_0460 persian gulf states
064_0461 ke wa qobella molemi ho
064_0462 transvala
064_0463 tla neha ba leloko sebaka
064_0464 union member states
064_0466 hang ha ho se ho
064_0467 ba ratang naha ya habo
064_0468 ya ditaba tsa lehae kapa
064_0469 polasi le nang le boleng
064_0470 european union member
064_0472 ya bt papisong le mekgwa
064_0473 sebaka moo sepudutsi se ke
064_0476 imperial japanese navy
064_0480 international astronomical union
064_0484 ho ngodisa khampani e poraefete
064_0486 afrika borwa jwalo ka ha
064_0487 rephaboliki
064_0490 ho feta ka moo ho
064_0491 dife kapa dife tse amanang
064_0493 e felletseng ya kgatiso tsa
064_0496 atlantic treaty organization
064_0500 melbourne football club
064_0501 leo mobu o leng ho
064_0505 kansas city royals
064_0507 itseng ntle le ho ama
064_0508 meade
064_0509 nakong ya dikgwedi tsa hlabula
064_0510 grisly
064_0514 hard disk drive
064_0519 animated television series
064_0523 mokopi le mohatsa hae ba
064_0524 le hore ho tle ho
064_0525 african unity oau
064_0526 motheo
064_0527 grain sa ya tlhahiso ya
064_0528 liberal arts college
064_0529 california state university
064_0531 pele ho ka jalwa sejothollo
064_0532 e ise embasing kapa misheneng
064_0534 di fetwa ka bohlwahlwa ke
064_0535 ho thehwa ha diyuniti tsa
064_0539 rona ba ho lwantsha botlokotsebe
064_0543 dilemong tse ngata tse fetileng
064_0544 management
064_0546 sa silafatsa phepelo ya metsi
064_0547 high middle ages
064_0549 e tshwanetse ho phethwa ka
064_0552 ho fana ka beile le
064_0555 pimville
064_0557 sa moralo wa puo ho
064_0558 monetary fund imf
064_0559 mabapi le tshireletso ya dijo
064_0560 security assistance force
064_0562 united states government
064_0563 kopo e tlameha ho felehetswa
064_0564 petroleum exporting countries
064_0566 fact date january
064_0567 ho bonahala eka ha ho
064_0569 ya ba mmalwa e ngodisitsweng
064_0571 tlhekelo
064_0572 video game developers
064_0573 sefe sa tlhahlobo ya laesense
064_0575 ho tswela pele ho ya
064_0576 black sea coast
064_0577 ho qetela la ho sebetsa
064_0578 o lokela ho etsa kopo
064_0579 e poraefete ya ho fihlella
064_0580 o nka kilograma e le
064_0581 ya grain sa ya tlhahiso
064_0583 ka mokgwa o hlwahlwa ho
064_0584 tsa diporofensi di a nahanwa
064_0585 mokga oo a etsang kopo
064_0588 borwa di tlameha ho ngodiswa
064_0591 le moemedi wa afrika borwa
064_0592 petroleum exporting countries
064_0593 of access to information act
064_0598 osama bin laden
064_0601 frank lloyd wright
064_0603 sexually transmitted diseases
064_0607 latelang di tla kotjwa bakeng
064_0609 early morning hours
064_0610 british west indies
064_0611 knights grand cross
064_0612 dilemong tse mmalwa tse fetileng
064_0614 tshenyo e kgolo dimeleng tse
064_0617 o tshwanetse ho ela hloko
064_0618 south sandwich islands
065_0003 american free trade
065_0006 kopo ya ho ngodisa khampani
065_0008 petroleum exporting countries
065_0009 europe music
065_0011 osama bin laden
065_0012 president harry
065_0017 itseng ntle le ho ama
065_0019 black sea coast
065_0025 larry
065_0028 positive real numbers
065_0030 palestinian national authority
065_0032 sebokeng sa naha bakeng sa
065_0034 bethal
065_0040 ya hao ka tsela ya
065_0042 clarify date march
065_0045 ho bonahala eka ha ho
065_0048 royal dutch shell
065_0049 ho fana ka beile le
065_0051 balemi ba ntseng ba thuthuha
065_0052 thibelang lefu ka mora ketsahalo
065_0059 national public radio
065_0060 american sign language
065_0062 ice hockey team
065_0064 memphis
065_0067 ba puo e tla hloka
065_0068 o be o na le
065_0070 ba ratang naha ya habo
065_0071 ho feta ka moo ho
065_0072 eldorado
065_0073 security assistance force
065_0074 ke mohlodi wa bohlokwa wa
065_0077 reef
065_0080 ka rakonteraka o na le
065_0081 ramolodi
065_0082 valence bond theory
065_0083 american television actors
065_0085 le nngwe feela afrika borwa
065_0086 ho fana ka ditshebeletso tse
065_0091 northern mariana islands
065_0096 sexually transmitted diseases
065_0097 george
065_0099 king james version
065_0101 weposaeteng ya lefapha la temo
065_0102 imperial japanese navy
065_0103 grain sa ya tlhahiso ya
065_0104 ludwig von mises
065_0105 liberal arts college
065_0106 inshorense ya tse sebediswang mobung
065_0114 dilemong tse mmalwa tse fetileng
065_0117 le ngodisitsweng mona afrika borwa
065_0122 make extensive use
065_0128 knights grand cross
065_0130 motheo
065_0131 islamic conference oic
065_0132 leo mobu o leng ho
065_0133 animated television series
065_0137 ya boitsebiso kapa setifikeiti sa
065_0140 catherine
065_0142 dikgeong tsa mesebetsi ya sehlopha
065_0143 ho qetela la ho sebetsa
065_0144 di fetwa ka bohlwahlwa ke
065_0145 high middle ages
065_0146 ka puo la afrika borwa
065_0151 billy
065_0154 ya hao ya boitsebiso kapa
065_0156 ho kganna ya borutehi bo
065_0158 tswa dinaheng tsa ka ntle
065_0161 united states navy
065_0162 re tla sebetsa ka matla
065_0163 station
065_0164 leng hore ha ho hlokehe
065_0165 frank lloyd wright
065_0169 molaotheo wa afrika borwa o
065_0170 etsa kopo bakeng sa phemiti
065_0171 francisco bay area
065_0174 open source initiative
065_0178 tsa lehae provinseng eo o
065_0180 leondale
065_0181 states unemployment rate
065_0185 boyce
065_0188 london
065_0190 theko ya oli e tala
065_0192 african unity oau
065_0200 khopi ya rasiti e saennweng
065_0201 average life expectancy
065_0202 management
065_0204 metsi a ka nnang a
065_0205 religious
065_0212 old east norse
065_0215 science fiction hall
065_0216 ho ngodisa setsi sa tlhahlobo
065_0217 boston red sox
065_0218 ya naha le ya matjhaba
065_0219 ya ngodiso e sa kgutlisweng
065_0220 hard disk drive
065_0222 mariha e hloka nako e
065_0224 sa silafatsa phepelo ya metsi
065_0225 tsa palamente di tlameha ho
065_0226 ya tse romellwang ka ntle
065_0227 kapa o tshwerwe tlasa mental
065_0228 west
065_0230 persian gulf states
065_0234 kansas city royals
065_0235 music awards winners
065_0239 pakeng tsa batho ba babedi
065_0241 video game developers
065_0242 lejwe
065_0243 ka nna a ba le
065_0246 early morning hours
065_0250 semmuso ya lekgetho e ka
065_0251 pro football hall
065_0252 european union member
065_0253 islamic conference oic
065_0254 tsamaiso ya sehlopha sa boithuto
065_0255 united states government
065_0256 roodepoort
065_0259 nobel prize winners
065_0260 ho bohlokwa ka ho fetisisa
065_0262 ferry
065_0277 ho tswa ho moabi ya
065_0278 hong kong island
065_0283 united states district
065_0284 marcel
065_0286 tshebediso e phahameng ya sesebediswa
065_0288 tlameha ho balwa ka botebo
065_0289 ho sebedisa lebitso le molaong
065_0292 bakeng la tsebo ya mosebetsi
065_0293 petroleum exporting countries
065_0294 tjhelete eo e seng ya
065_0295 haufi tsa ntshetsopele ya setjhaba
065_0297 ya south african revenue service
065_0299 samuel's
065_0303 tshwaneleha ka mora nako e
065_0304 california state university
065_0305 melbourne football club
065_0306 dintlha dife kapa dife tse
065_0307 of access to information act
065_0309 ho ya ka palohare ya
065_0313 ke mang ya ka etsang
065_0314 nna a fetoha sebaka moo
065_0315 phasepoto ya hao ya afrika
065_0316 new york jets
065_0317 mabapi le tshireletso ya dijo
065_0318 moahi wa afrika borwa kapa
065_0319 nyetseng nyetsweng eo mohatsae e
065_0320 united nations high
065_0321 fact date january
065_0322 sena se ka qetella ka
065_0323 grisly
065_0326 american musical theatre
065_0331 ho teng ba bang ba
065_0333 ford motor company
065_0340 tlhahisoleseding e fumanwe bukaneng ya
065_0343 a dintwa tsa ka malapeng
065_0346 tsa diporofensi di a nahanwa
065_0347 ya naha e tshwereng motho
065_0350 northern
065_0351 union member states
065_0353 a hlahisa dikgwebo tsa tsona
065_0354 pele ho ka jalwa sejothollo
065_0356 ke molao wa motheo ho
065_0360 tla neha ba leloko sebaka
065_0361 e ne e le sebaka
065_0362 roman catholic archbishops
065_0363 ho tshela oli e ntjha
065_0365 la ho qala la nakwana
065_0367 british foreign secretary
065_0369 eo ho dumellanweng ka yona
065_0370 bang ba tlosa pompo pele
065_0373 foromo ya kopo ka dikopi
065_0374 dilemong tse ngata tse fetileng
065_0375 merafong le temong bakeng sa
065_0376 tlhakiso ya mahlale a puo
065_0377 tse tshwanetseng ho elwa hloko
065_0378 united states began
065_0380 toka
065_0381 di ka qojwang ka teng
065_0382 american nobel laureates
065_0383 leano le ona o hlokometse
065_0384 lekala la thuto le thupelo
065_0386 fihlwang ho yona ya mohlahisi
065_0389 ya makgulo bakeng sa kgwebo
065_0390 kopo ya phemiti ya phapanyetsano
065_0392 close air support
065_0393 ditlhaloso tsa lengolo la truste
065_0394 kenya tshebetsong mokgwa wa ho
065_0395 sefe sa tlhahlobo ya laesense
065_0398 fact date july
065_0400 professional american football
065_0401 ho sebedisa thaere e kgolwanyane
065_0402 new testament canon
065_0403 garrick
065_0404 ka hara naha ya afrika
065_0406 ho isa ho tse nne
065_0408 atlantic
065_0410 kapa badudi ba saruri ba
065_0412 e bile wa bohlokwa ho
065_0417 hloka tumello e ikgethang e
065_0418 general public license
065_0420 lokela ho phatlalatsa ditokomane hanghang
065_0421 bolaodi bo ka bonang e
065_0422 lengolo la tumello haeba o
065_0423 gcis e ka fana ka
065_0424 ho ngodisa khampani e poraefete
065_0427 billion years ago
065_0428 letowana
065_0429 ho etsa diteko tsa hiv
065_0430 state university alumni
065_0431 re tla dula re ntse
065_0432 e na le dimojule tse
065_0433 south sandwich islands
065_0434 clarify date february
065_0435 hlalositsweng bakeng sa ditjhelete tse
065_0436 ha o a dumellwa ho
065_0439 notable examples include
065_0440 tlosa pompo pele ba ilo
065_0442 khampani kapa khampani ya ba
065_0443 tse ding tsa dintho tseo
065_0445 pimville
065_0447 ho ngodisa jwalo ka setsebi
065_0448 ba hore khopi ya foromo
065_0449 le katleho ya sepheo sa
065_0450 united states air
065_0452 toka le ntshetsopele ya molao
065_0454 le hore re kgone ho
065_0455 tlameha ho felehetsa kopo ka
065_0456 tumellano ya nakwana le seng
065_0457 hubble space telescope
065_0458 united states declaration
065_0459 baemedi ba porofensi ho ncop
065_0461 test ban treaty
065_0463 cognitive behavioral therapy
065_0464 kiana
065_0465 boholo ba nako e etsang
065_0466 rapid economic growth
065_0467 grand
065_0470 army occupied cypriot
065_0471 ha eba poone e iswa
065_0472 comic book series
065_0473 war political
065_0474 dennilton
065_0475 nebula award winning
065_0476 ho thehwa ha diyuniti tsa
065_0478 le tumello e ngotsweng fatshe
065_0480 united states dollar
065_0482 dintlha tsena ka boraro ba
065_0483 american free trade
065_0485 hlahisa ditabatabelo le mehopolo ya
065_0488 box office success
065_0489 ho itsebisa jwalo ka ntate
065_0492 western european countries
065_0493 sera
065_0494 guano islands act
065_0496 e batlang e le ntle
065_0497 mokgwa o sa tlwaelehang re
065_0498 united states federal
065_0499 winter olympic games
065_0500 afidaviti eo ho entsweng kano
065_0501 atlantic slave trade
065_0502 halleck
065_0504 e leng commission for conciliation
065_0505 jewish american writers
065_0506 american musical theatre
065_0508 ho phetholwa ha pele ha
065_0509 human rights record
065_0511 kuno e phahameng ya dijothollo
065_0512 day saint movement
065_0513 le ona o hlokometse hore
065_0514 hore ditho tsa palamente di
065_0515 real gdp growth
065_0517 lengolo le tswang ho setho
065_0520 ludwig von mises
065_0521 tekolo botjha ya ditlwaelo le
065_0522 clarify date november
065_0524 north west company
065_0525 institjhute
065_0527 missing living people
065_0528 jwalo ka o motjha mme
065_0530 ditshebeletso tsa sepolesa sa afrika
065_0531 terekere le disebediswa tsa temo
065_0533 ba mmalwa le traste ditho
065_0537 social democratic party
065_0539 ya b di be tharo
065_0540 essential fatty acids
065_0542 e ka nka dikgwedi tse
065_0543 internal combustion engine
065_0546 chinese communist party
065_0550 chinese civil war
065_0553 hloka bokgoni ba ho nehelana
065_0557 central processing unit
065_0558 ya hao setatementeng sa banka
065_0560 kapa ofe ya batlang ho
065_0566 david
065_0568 ba dilemo tse ka hodimo
065_0570 kansas state university
065_0574 wayne state university
065_0579 form hydrogen bonds
065_0583 ho na le ditsela tse
065_0585 ebe o nka kilograma e
065_0587 ya tswelang pele ka mosebetsi
065_0590 treaty organization nato
065_0591 lengolo la bopaki la phytosanitary
065_0592 palamente ya rephaboliki ya afrika
065_0593 united arab emirates
065_0594 sa ho ba le seabo
066_0001 leqephe la pele la foromo
066_0003 tlhahiso ya dijothollo mobung o
066_0004 bakileng kgatello ya tshebediso ya
066_0005 system
066_0007 ya ho jala dijothollo tse
066_0008 junior high school
066_0010 july
066_0011 fifa world cup
066_0012 international atomic energy
066_0013 protea
066_0014 golden globe winners
066_0017 le hore se sebetsa jwang
066_0018 bad
066_0019 red blood cells
066_0020 ba teng ha lenaneo la
066_0021 di tswela pele ho sa
066_0023 le ho romela ditokomane ho
066_0024 boholo ba masimo a hao
066_0025 sehlopheng sa rona sa tshebetso
066_0027 bragg
066_0028 primitive recursive functions
066_0029 ile ba hapa moputso wa
066_0032 setefikeiti sa boingodiso ba koloi
066_0033 bill
066_0034 moralo wa leano la puo
066_0035 fact date march
066_0036 power parity comparisons
066_0038 mabitso a bonkgetheng bakeng sa
066_0040 tse felletseng tsa moo ho
066_0041 eighty years war
066_0042 moo motho a fumanang kuno
066_0044 pakeng tsa dikarolwana tsa mobu
066_0045 united states president
066_0047 ya taelo ya tshireletso ya
066_0048 kapa hofe ho ka bang
066_0049 ozone layer protection
066_0051 e ne e se e
066_0053 southwestern united states
066_0054 san francisco giants
066_0055 le reng limited le tla
066_0058 federal trade commission
066_0060 metsimaholo
066_0062 bridgeport
066_0064 chancellorsville
066_0070 harry
066_0071 church turing thesis
066_0072 setifikeiti sa tswalo sa afrika
066_0073 common law jurisdictions
066_0076 poids et mesures
066_0077 tailor
066_0078 north germanic languages
066_0079 ya phemiti ya bodulo ba
066_0082 mang ya ikemiseditseng ho nehelana
066_0083 russian civil war
066_0084 kenngwa ha jine ya bt
066_0085 national football team
066_0086 ya tumello ya ho romela
066_0088 manejara wa lebatowa a ananela
066_0089 le hore re tle re
066_0091 randburg
066_0093 tshebetso e etsang hore ho
066_0094 best supporting actor
066_0095 ya ngaka ya diphoofolo ya
066_0096 national hockey league
066_0097 best foreign language
066_0098 laesense ya boditjhaba ya ho
066_0100 nako e telele ho tiisitse
066_0101 president george
066_0106 bona ba na le tokelo
066_0107 e tla fapana ka ho
066_0108 la provinse kapa la naha
066_0112 human development index
066_0115 la ditaba tsa tikoloho le
066_0116 european economic area
066_0121 ba bangata ba nang le
066_0125 ya hae ntle ho lebaka
066_0127 ya mahola le dikokwanyana ka
066_0128 tsena tsohle di ile tsa
066_0130 ha metsi pakeng tsa dikarolwana
066_0131 ntshetsopele ya dipeo tsa oli
066_0133 mahola e tshwanetse ho etswa
066_0137 motho ya tshwereng thaetlele kapa
066_0138 articles including recorded
066_0139 internet protocol suite
066_0140 tse ding le tse ding
066_0143 hlahisa dijothollo di phahame haholo
066_0145 central
066_0146 tshebedisano e kwetsweng e lefa
066_0149 average family size
066_0150 balemi ba batjha ba ka
066_0152 jwalo ka ha ho hlokeha
066_0153 citation needed april
066_0155 dipuo tsa afrika borwa tsa
066_0156 madison square garden
066_0157 ya etsang kopo ya tokomane
066_0158 van der waals
066_0159 e leng se etsang hore
066_0164 bakeng sa nako ya boholo
066_0165 proffesor
066_0167 ho tshwarella nako e telele
066_0168 ntswaki
066_0170 disebediswa tse seng di ile
066_0171 ka ho lekola tswelopele ya
066_0172 league baseball team
066_0175 american jewish people
066_0176 numeric character references
066_0177 army air corps
066_0178 saint john river
066_0179 poone le dinawa tsa soya
066_0183 nfc championship game
066_0185 o lokela ho ba motho
066_0186 motho a tshwerweng ho yona
066_0188 good
066_0192 kgatello ya tshebediso ya mefuta
066_0193 etsa boipiletso ho letona la
066_0195 lefapheng la kgwebo le indasteri
066_0198 miller's
066_0200 tlhahiso ya poone le soneblomo
066_0202 bao e leng ditho tsa
066_0203 moo ho ipehilweng ka tsela
066_0208 le ho tempuwa ke mosebeletsi
066_0211 ntate wa ngwana ya tswetsweng
066_0212 potter's
066_0214 baka mathata temong ya dijothollo
066_0221 history
066_0223 royal albert hall
066_0225 new york jets
066_0226 original game boy
066_0227 hodimo ho moo ba tla
066_0228 feta pele hore ho na
066_0229 foreign direct investment
066_0230 tumello e ngotsweng fatshe e
066_0235 e kenella tlase mobung le
066_0236 big bang model
066_0237 ho ntsha raporoto ya radiology
066_0238 monroe
066_0240 complaints
066_0241 tlhahiso ya poone le mmaraka
066_0243 congressional gold medal
066_0244 september
066_0245 tlwaelo e ke ke ya
066_0246 recent common ancestor
066_0247 kopo ya setefikeiti sa ho
066_0251 ka morero wa ho matlafatsa
066_0252 gibbon
066_0255 kopi e tiiseditsweng ya bukana
066_0256 dingane
066_0258 tse ka hodimo tsa mobu
066_0259 diminerale kapa mahakwe a bohlokwa
066_0260 basebeletsi ba hao le dijothollo
066_0262 centrally planned economy
066_0263 dutch east india
066_0264 modern orthodox judaism
066_0266 feteng dikgwedi tse tharo kapa
066_0270 e tswang ho registrar of
066_0271 le kgonahalo ya hore batho
066_0273 tlhokeho ya mosebetsi wa ho
066_0274 durban
066_0275 a diphoofolo tsa afrika borwa
066_0277 hlodisana le dijothollo mabapi le
066_0278 sebedisa tlhahisoleseding e kentsweng ke
066_0280 recreation
066_0281 tsa larvae hammoho le mahe
066_0282 pholisi ya naha ya batjha
066_0283 mesebetsi e itseng ka ho
066_0285 org wiki wikipedia
066_0286 north west company
066_0287 nelson mandela le thabo mbeki
066_0289 strategic air command
066_0290 kgahlanong le dikgoka ho basadi
066_0292 environmental protection agency
066_0293 award winning authors
066_0295 e fuwa baahi ba naha
066_0297 ya selemo kapa ya sehla
066_0298 mahareng a phato ho fihlela
066_0300 strong nuclear force
066_0301 moaho wa lekgotla la naha
066_0302 united states census
066_0303 di na le nako e
066_0304 new york yankees
066_0305 ya mobu bakeng sa ntshetsopele
066_0306 great lakes region
066_0307 la dibokonyana tsena tse salang
066_0308 french west africa
066_0309 ya pele e neng e
066_0311 tlamehile maoto le matsoho ho
066_0313 bafta winners people
066_0314 senyesemane
066_0318 states environmental protection
066_0319 dineo
066_0320 american male singers
066_0321 midrand
066_0322 magnetic resonance imaging
066_0324 ke ke wa kgona ho
066_0325 nuclear test ban
066_0326 ho tholwa ha ngwana ka
066_0327 ya kopo ofising e haufi
066_0329 se fana ka monyetla o
066_0330 mabapi le tlhahiso ya koro
066_0333 tla romelwa seteisheneng sa mapolesa
066_0334 bay
066_0336 hartbeespoort
066_0338 baheno
066_0341 eo re neng re e
066_0342 palestine liberation organization
066_0343 tsebisa ka ho o ngolla
066_0344 e nngwe ya tsona e
066_0345 holy hand grenade
066_0346 o neng o rena ditherisanong
066_0347 free methodist church
066_0351 lokelang ho fetolelwa bafetoleding ba
066_0353 moahi wa naha ya afrika
066_0354 united states senate
066_0355 ka mora kotulo ya koro
066_0357 madison square garden
066_0359 argentina ho ya afrika borwa
066_0360 convention
066_0362 roman catholic priests
066_0363 blood
066_0364 aterese ya moo o dulang
066_0365 tadimilwe thibelo ya tlhodisano le
066_0366 united states army
066_0370 sa witblits se neng se
066_0372 buddhism
066_0373 sepolesa sa aforikaborwa e lefe
066_0374 mokgwa wa elektroniki kapa khaontareng
066_0378 supreme court ruled
066_0380 tswa ho monga setsha seo
066_0381 leng le le leng kapa
066_0383 ba ka hodimo ho dilemo
066_0384 bilateral immunity agreement
066_0386 ya saense ya lekgotleng la
066_0387 ka dikopi tse tiiseleditsweng tsa
066_0392 indastering e batsi ya temo
066_0393 golden globe film
066_0396 ditaba tsena di nkilwe thutong
066_0398 ya tshwereng thaetlele kapa monga
066_0399 ka mokgwa o nepahetseng nakong
066_0403 terekere le disebediswa tsa polasing
066_0404 phemiti ya ho rafa kapa
066_0405 kgopolo ya hore dihlahiswa tse
066_0409 rala mme o romele ditokomene
066_0410 boqwabi
066_0411 senqu
066_0413 a ka nna a baka
066_0415 tsosoloso ya boemo ba theshiari
066_0416 october
066_0417 a na le dijo tse
066_0419 american film producers
066_0420 law enforcement agencies
066_0421 ya poso e sa risefuwang
066_0422 hospital
066_0423 seng le lefilwe bakeng sa
066_0424 banka
066_0425 mokgatlo o emetseng basebeletsi tumellanong
066_0429 ho se ho kenwe ho
066_0430 sebetsa jwalo ka borasaense ba
066_0433 electron transport chain
066_0436 supreme allied commander
066_0438 hoer leano le phethahale bophelong
066_0441 dikopo tse sa tlatswang ka
066_0443 tikoloho
066_0444 hore menyenyetsi e mabapi le
066_0445 hangata a na le metso
066_0447 hall
066_0448 nakwana ke ho thusa balefi
066_0450 armoured fighting vehicles
066_0452 fiction television series
066_0453 mabapi le ho sebedisa poone
066_0454 ho tloha sebopehong sa kgale
066_0455 tlhokomelo mabapi le tshebediso e
066_0456 united states geological
066_0463 etsa hore balemi ba kgone
066_0465 e na le boikarabelo ba
066_0466 randfontein
066_0473 ha eba o hloleha ho
066_0475 early church fathers
066_0476 united states
066_0478 tokomane eo o batlang ho
066_0482 diprojeke tsa bohlokwa tsa lenaneo
066_0485 a lehodimo nakong ya tshebediso
066_0486 ka nngwe e na le
066_0487 screen actors guild
066_0488 le o mong o na
066_0489 moscow state university
066_0493 cathode ray tube
066_0497 phepelo ya dijo tsa polasing
066_0499 lekgotleng la dinyewe ho tla
066_0500 ya grain sa ya tlhahiso
066_0502 station
066_0504 a hlahisa dikgwebo tsa tsona
066_0505 phahameng ya poone le mmaraka
066_0506 united states district
066_0508 ho ngodisa jwalo ka setsebi
067_0002 mahola ke sera sa pele
067_0004 batshwaruwa
067_0006 etsa kopo bakeng sa phemiti
067_0007 ka hara lekgotla la naha
067_0014 state university alumni
067_0017 grisly
067_0020 aung san suu
067_0022 khopi ya rasiti e saennweng
067_0024 boholo ba nako e etsang
067_0025 tshebetso tsa lekgetho la kuno
067_0027 hong kong island
067_0028 ford motor company
067_0030 boyce
067_0033 eldorado
067_0035 billy
067_0039 imperial japanese navy
067_0041 ntlafatsa polokeho le tshireletso ya
067_0043 professional american football
067_0046 early morning hours
067_0048 grand
067_0051 matsatsi a leshome eo ka
067_0055 ho sebedisa thaere e kgolwanyane
067_0056 american voice actors
067_0057 american nobel laureates
067_0062 baemedi ba porofensi ho ncop
067_0065 knights grand cross
067_0067 efe kapa efe eo e
067_0069 bethal
067_0070 open source initiative
067_0074 ho etsa diteko tsa hiv
067_0076 pimville
067_0077 kgothalletswa ho ithuta dipuo tse
067_0078 theko ya oli e tala
067_0079 le mekgwa e meng ya
067_0080 international astronomical union
067_0083 ya grain sa ya tlhahiso
067_0087 fact date july
067_0089 le haebe ho boletswe ka
067_0093 foromo ya kopo ka dikopi
067_0095 northern
067_0096 tsa lehae provinseng eo o
067_0099 music awards winners
067_0101 fane ka nomoro ya akhauntu
067_0102 seetebosigo
067_0103 ho ngodisa khampani e poraefete
067_0104 european union member
067_0106 major professional sports
067_0109 ya ho tsamaisa tshebeletso ya
067_0110 ya ba mmalwa e ngodisitsweng
067_0111 california state university
067_0113 tlameha ho felehetsa kopo ka
067_0114 ke notary public kapa mokhomishenara
067_0115 leo mobu o leng ho
067_0118 make extensive use
067_0121 kapa o tshwerwe tlasa mental
067_0126 roman catholic archbishops
067_0128 boramesebetsi ba lokela ho saena
067_0129 tsa diporofensi di a nahanwa
067_0131 francisco bay area
067_0132 diporofensi di a nahanwa boemong
067_0133 boafrika borwa ba rona bo
067_0134 wa provinse ya bophelo bo
067_0137 tone ka nngwe ho tsamaisa
067_0139 ofisi ya iss ya afrika
067_0140 dubious date april
067_0142 ho bonahala eka ha ho
067_0144 functional programming languages
067_0147 frank lloyd wright
067_0150 ho tshela oli e ntjha
067_0152 e felletseng ya kgatiso tsa
067_0154 le teng ka nako tsohle
067_0155 ba ratang naha ya habo
067_0157 management
067_0159 states unemployment rate
067_0160 video game developers
067_0163 episcopal church usa
067_0164 ice hockey team
067_0166 ka moo ho ka kgonehang
067_0167 ludwig von mises
067_0168 e tiiseditsweng ha ditokomane di
067_0169 kopo ya ho ngodisa khampani
067_0171 hard disk drive
067_0173 palestinian national authority
067_0174 osama bin laden
067_0175 west
067_0177 nebula award winning
067_0179 high middle ages
067_0181 kapa ho hloka bokgoni ba
067_0182 ba badudi ba saruri ba
067_0183 le kgahleho bophelong ba motletlebi
067_0184 motherwell
067_0187 close air support
067_0190 cognitive behavioral therapy
067_0192 sexually transmitted diseases
067_0193 di ka romelwa ofising efe
067_0194 wa setjhaba lawrence mushwana o
067_0195 hubble space telescope
067_0196 ya ngodiso e sa kgutlisweng
067_0197 american television actors
067_0198 united states began
067_0200 hang ha ho se ho
067_0201 le hore ho tle ho
067_0203 american political writers
067_0205 mane ho isa ho a
067_0207 malwetse a pustule a bakwang
067_0208 hlalositsweng bakeng sa ditjhelete tse
067_0213 mananeo a mmuso a ho
067_0214 o nka kilograma e le
067_0217 re tla dula re ntse
067_0218 transvala
067_0220 nobel prize winners
067_0224 nka matsatsi a fihlang ho
067_0226 game boy advance
067_0228 bolaodi bo ka bonang e
067_0231 ka rakonteraka o na le
067_0236 northern mariana islands
067_0239 ya phemiti ya mosebetsi ya
067_0241 sefe sa tlhahlobo ya laesense
067_0242 ho tswela pele ho ya
067_0243 of access to information act
067_0246 united states navy
067_0247 republican party united
067_0248 ho teng ba bang ba
067_0249 old east norse
067_0250 african unity oau
067_0251 tse tshwanetseng ho elwa hloko
067_0252 eo ho dumellanweng ka yona
067_0254 ho ba le seabo lenaneong
067_0255 e ya weposaeteng ya lefapha
067_0258 national public radio
067_0260 le nngwe feela afrika borwa
067_0261 united nations high
067_0262 dikokwanyana ka thibelo ya mefuta
067_0264 united states declaration
067_0266 tse ntjha tsa ho banka
067_0269 ho ntlafatsa boleng ba bophelo
067_0272 kiana
067_0273 ferry
067_0274 roodepoort
067_0275 dennilton
067_0276 ke wa qobella molemi ho
067_0277 billion years ago
067_0278 garrick
067_0280 atlantic treaty organization
067_0281 catherine
067_0282 kgannelang tlhaselong e eketsehang ya
067_0283 bontshang kamano pakeng tsa theko
067_0285 afrika borwa jwalo ka ha
067_0286 yona ha feela le tla
067_0288 lejwe
067_0289 ya naha e tshwereng motho
067_0291 dintlha tsena ka boraro ba
067_0292 pro football hall
067_0294 nang le tokelo ya ho
067_0295 pele ho ka jalwa sejothollo
067_0297 memphis
067_0298 kansas city royals
067_0301 clarify date february
067_0302 pope benedict
067_0305 tsa theko ya sehlahiswa le
067_0307 ke boikarabelo ba moahi e
067_0308 wa seboka sa naha le
067_0310 war political
067_0311 army occupied cypriot
067_0312 tshenyo e kgolo dimeleng tse
067_0313 saense ya lekgotleng la molao
067_0314 larry
067_0318 petroleum exporting countries
067_0320 black sea coast
067_0321 ho feta ka moo ho
067_0322 khopi e netefaditsweng ya bukana
067_0323 ka mora nako e itseng
067_0326 di fetwa ka bohlwahlwa ke
067_0327 melbourne football club
067_0328 general public license
067_0329 ho isa ho tse nne
067_0330 ya hao ya boitsebiso kapa
067_0331 sa silafatsa phepelo ya metsi
067_0332 kopanelo ya boitshwaro bo botle
067_0334 tsebiso ya lefapha le molaong
067_0336 boston red sox
067_0337 tshwanela ho etsa kopo ya
067_0338 la nakwana le lokelwang ho
067_0339 tlhahisoleseding e fumanwe bukaneng ya
067_0340 rephaboliki
067_0341 molaotheo wa afrika borwa o
067_0345 ya ho ba teng ho
067_0348 ba hore khopi ya foromo
067_0349 ntle mofuta wa hlapi o
067_0351 ho thehwa ha diyuniti tsa
067_0352 europe music
067_0353 sound
067_0355 ya hao e tla lekolwa
067_0357 ho mokga o laolang wa
067_0358 persian gulf states
067_0359 kopo ya phemiti ya phapanyetsano
067_0361 moo e leng hore ho
067_0363 ka hlaloswa ka mokgwa o
067_0364 western united states
067_0365 ena ka sepheo sa ho
067_0366 gcis e ka fana ka
067_0367 thibelang lefu ka mora ketsahalo
067_0368 ho kganna ya borutehi bo
067_0371 o be o na le
067_0374 tiisitse hore ha ho hlwahlwa
067_0379 positive real numbers
067_0381 leondale
067_0382 aterese le nomoro ya mohala
067_0383 united states government
067_0384 president harry
067_0385 united states dollar
067_0386 batlang ho fumana boahi ba
067_0387 mabapi le tshireletso ya dijo
067_0389 extension
067_0390 american free trade
067_0391 states district court
067_0393 united states district
067_0394 austrian school economists
067_0395 ho ngodisa jwalo ka setsebi
067_0396 nyetseng nyetsweng eo mohatsae e
067_0397 reef
067_0398 king james version
067_0399 average life expectancy
067_0400 setsheng sa bafu sa poraefete
067_0401 le ngodisitsweng mona afrika borwa
067_0402 western united states
067_0404 dintho ka mokgwa o sa
067_0406 valence bond theory
067_0407 ramolodi
067_0408 national baseball hall
067_0409 animated television series
067_0411 royal dutch shell
067_0414 new testament canon
067_0415 leano le ona o hlokometse
067_0416 fact date january
067_0418 theko ya sehlahiswa le bongata
067_0420 tlosa pompo pele ba ilo
067_0421 british foreign secretary
067_0423 liberal arts college
067_0425 clarify date march
067_0427 ka mokgwa o hlwahlwa ho
067_0428 notable examples include
067_0429 religious
067_0430 e poraefete ya ho fihlella
067_0434 random access memory
067_0436 security assistance force
067_0437 ho thola ngwana ka molao
067_0438 moo se sa tshwanelang se
067_0440 ancient near east
067_0442 ka puo la afrika borwa
067_0443 dilemong tse mmalwa tse fetileng
067_0444 leng la mahlakore ana a
067_0446 ho tla nne ho dule
067_0447 meade
067_0450 morao ka dilemo tse ngata
067_0452 british west indies
067_0455 samuel's
067_0456 ho bohlokwa ka ho fetisisa
067_0458 hloka bokgoni ba ho phetha
067_0459 american sign language
067_0461 lengolo la tumello haeba o
067_0463 old garden roses
067_0464 box office success
067_0466 hauhelele
067_0467 monetary fund imf
067_0468 ikopanye le ofisi ya lefapha
067_0469 o lokela ho etsa kopo
067_0470 asian financial crisis
067_0471 western european countries
067_0472 tse ikgethileng tsa kgatello di
067_0474 ho kenyelletswa le ditaba tse
067_0476 ya foromo ena e fuwe
067_0478 rapid economic growth
067_0479 tjhelete eo e seng ya
067_0482 islamic conference oic
067_0483 la ho qala la nakwana
067_0485 tshwaneleha le moruo wa tshebetso
067_0487 ha o a dumellwa ho
067_0488 american musical theatre
067_0489 islamic conference oic
067_0494 di ka qojwang ka teng
067_0495 wa ho qala wa leloko
067_0497 inshorense ya tse sebediswang mobung
067_0498 george
067_0500 comic book series
067_0501 american musical theatre
067_0503 real gdp growth
067_0505 lengolo le tswang ho setho
067_0506 essential fatty acids
067_0507 e batlang e le ntle
067_0510 sehla se hlahlamang sa ho
067_0512 n g rjuna
067_0513 winter olympic games
067_0514 clarify date november
067_0515 ya nang le phemiti ya
067_0516 ya seteraeke kapa ho notlellwa
067_0518 ya hao setatementeng sa banka
068_0001 hore mobu o na le
068_0002 kofi
068_0003 television shows set
068_0004 jwalo ka ha ho hlokeha
068_0005 ho ba teng ha lenaneo
068_0007 ho kenngwa tshebetsong ha melao
068_0008 ba ka hodimo ho dilemo
068_0009 wa afrika borwa a ka
068_0010 argentina ho ya afrika borwa
068_0011 red blood cells
068_0012 tlhaho temeng ya saense ya
068_0014 tlhahiso ya poone le mmaraka
068_0015 tse ding le tse ding
068_0016 bill
068_0017 eighty years war
068_0018 nfc championship game
068_0019 moscow state university
068_0021 following world war
068_0022 july
068_0023 mang ya ka etsang kopo
068_0025 seboka sa naha le lekgotla
068_0026 ho tloha sebopehong sa kgale
068_0028 ka mora kotulo ya koro
068_0029 supreme allied commander
068_0030 di tswela pele ho sa
068_0032 ha eba kere e potolohisang
068_0033 tadimilwe thibelo ya tlhodisano le
068_0035 senqu
068_0036 federal trade commission
068_0038 la ditaba tsa lehae hore
068_0043 saense ya tlhaho dikri diploma
068_0044 court ha e le traste
068_0046 maseru
068_0047 united states president
068_0049 lekala
068_0051 tse felletseng tsa moo ho
068_0052 international atomic energy
068_0055 pheta tshebetso ena makgetlo a
068_0056 naha ya afrika borwa kapa
068_0057 kapa hofe ho ka bang
068_0059 ile wa rekisetswa lefapha la
068_0060 buddhism
068_0064 batsi mabapi le sekgahla sa
068_0065 strategic air command
068_0066 kgothalletsa ka matla tshebediso ya
068_0067 peo ya ona e ka
068_0068 tikoloho
068_0069 tokomane eo o batlang ho
068_0070 seo a lokelang ho se
068_0071 ka ho lekola tswelopele ya
068_0072 di be tharo mme o
068_0074 ya ho lebela ya bopolesa
068_0075 congressional gold medal
068_0079 ka dikopi tse tiiseleditsweng tsa
068_0080 nna ya haella ka ha
068_0082 following world war
068_0083 ka bonyane dipuo tse tsheletseng
068_0084 a diphoofolo tsa afrika borwa
068_0085 buddhism
068_0086 boholo ba masimo a hao
068_0087 kgahlanong le dikgoka ho basadi
068_0089 laesense ya boditjhaba ya ho
068_0090 ya taelo ya tshireletso ya
068_0091 hodimo ho moo ba tla
068_0093 united states senate
068_0094 moscow state university
068_0095 kamohelo ya ho sebetsa jwalo
068_0096 international atomic energy
068_0097 madison square garden
068_0099 kopo ya phemiti ya bodulo
068_0100 federal trade commission
068_0101 provenseng kang ho tla ba
068_0102 ha eba poone e sa
068_0103 tse felletseng tsa moo ho
068_0104 common law jurisdictions
068_0105 tlhahiso ya dijothollo mobung o
068_0106 electron transport chain
068_0107 sebedisa tlhahisoleseding e kentsweng ke
068_0108 red blood cells
068_0109 nako e telele ho tiisitse
068_0112 leng le le leng kapa
068_0114 feteng dikgwedi tse tharo kapa
068_0115 national science foundation
068_0116 e sebetswa letsatsing leo e
068_0118 tadimilwe thibelo ya tlhodisano le
068_0119 kgatello ya tshebediso ya mefuta
068_0120 moralo wa leano la puo
068_0121 red blood cells
068_0126 american male singers
068_0128 madison square garden
068_0129 saint john river
068_0131 tlasa merero e hlwauweng mona
068_0135 blood
068_0137 rona bo tataiswe haholo ke
068_0138 mme hona ho tla ya
068_0141 science fiction novel
068_0142 ho tshwarella nako e telele
068_0143 re tsebang ho sebetsa re
068_0144 nakwana ke ho thusa balefi
068_0145 ya rona ya puo le
068_0148 power parity comparisons
068_0150 ya mobu bakeng sa ntshetsopele
068_0153 miller's
068_0155 mabitso a bonkgetheng bakeng sa
068_0157 dutch east india
068_0158 karolong e ka tlase ya
068_0159 proffesor
068_0161 kopo ya laesense ya sekepe
068_0163 early church fathers
068_0164 senyesemane
068_0165 french west africa
068_0168 fiction television series
068_0170 seng le lefilwe bakeng sa
068_0172 batho
068_0173 history
068_0174 le ho romela ditokomane ho
068_0176 mabapi le mefuta e metle
068_0177 hartbeespoort
068_0178 le hore se sebetsa jwang
068_0180 le reng limited le tla
068_0181 potter's
068_0182 articles including recorded
068_0183 ha re sebetsa mmoho re
068_0184 hlodisana le dijothollo mabapi le
068_0190 ba lefapha la ditaba tsa
068_0191 numeric character references
068_0192 le ho tempuwa ke mosebeletsi
068_0193 be bonolo ho palama baesekele
068_0194 ya thuso bakeng sa ho
068_0196 seboka sa naha le lekgotla
068_0197 african
068_0199 tumello e ngotsweng fatshe e
068_0200 kopo ya setefikeiti sa ho
068_0201 tlhahiso ya poone le soneblomo
068_0203 o lokela ho ba motho
068_0205 la boemo bo hodimo la
068_0207 mabapi le tlhahiso ya koro
068_0208 award winning authors
068_0209 tlwaelo e ke ke ya
068_0210 chancellorsville
068_0211 protea
068_0212 le ho tloswa ha matlakala
068_0214 etsa boipiletso ho letona la
068_0215 recreation
068_0216 mabapi le ho sebedisa poone
068_0218 foreign direct investment
068_0219 hore mobu o na le
068_0220 keketseho thekong ya matjhaba e
068_0221 la afrika borwa la basebetsi
068_0223 e fumaneha ka potlako weposaeteng
068_0224 ha puo e lahlehelwa ke
068_0225 junior high school
068_0226 tlamehile maoto le matsoho ho
068_0227 afrika borwa ha kopo e
068_0228 ntswaki
068_0229 military coup
068_0230 armoured fighting vehicles
068_0232 o na le diterekere le
068_0235 pakeng tsa dikarolwana tsa mobu
068_0236 tse phahameng tsa taolo ka
068_0237 feta pele hore ho na
068_0238 a lehodimo nakong ya tshebediso
068_0239 supreme allied commander
068_0240 la ditaba tsa lehae hore
068_0241 sehlopheng sa rona sa tshebetso
068_0242 south asian association
068_0244 seo o hopotseng ho se
068_0249 united states census
068_0250 ho sireletsa le ho matlafatsa
068_0251 phethahatso ya leano lena e
068_0255 ya etsang kopo ya tokomane
068_0256 ha eba o hloleha ho
068_0257 ba ka hodimo ho dilemo
068_0258 man
068_0262 ho ntsha raporoto ya radiology
068_0264 haholo ke moruo wa tsona
068_0266 average family size
068_0267 ke ke wa kgona ho
068_0268 randfontein
068_0269 se fetileng sa hlabula e
068_0270 re kopa hore o ele
068_0271 leng se bolelang hore ho
068_0272 mesebetsi e itseng ka ho
068_0273 supreme court ruled
068_0274 setifikeiti sa tswalo sa afrika
068_0275 ofisi ya lefapha le haufi
068_0278 tsitsitseng mmusong maemong le ha
068_0279 motho a tshwerweng ho yona
068_0282 phemiti ya ho rafa kapa
068_0283 kapa mokgatlo wa nakwana o
068_0284 motho ya tshwereng thaetlele kapa
068_0285 ke ema ka pela lona
068_0286 ya ho ba teng ha
068_0287 monroe
068_0289 le hore re tle re
068_0290 tsa larvae hammoho le mahe
068_0291 american jewish people
068_0292 fact date august
068_0293 nuclear test ban
068_0294 screen actors guild
068_0297 naha ya afrika borwa ba
068_0299 united states army
068_0302 ho hlokeha lengolo la tumello
068_0303 national hockey league
068_0304 tse ding le tse ding
068_0305 dikarolo dife kapa dife tse
068_0307 high seas fleet
068_0308 leqephe la pele la foromo
068_0309 north germanic languages
068_0311 states environmental protection
068_0312 mabapi le sehla se tlang
068_0315 sa witblits se neng se
068_0316 tlhokomelo mabapi le tshebediso e
068_0319 dingane
068_0320 ya ho tswela pele ha
068_0321 ozone layer protection
068_0322 e ntshitsweng ke bolaodi bo
068_0323 banka
068_0324 tswa ho monga setsha seo
068_0330 ditaba tse amanang le molao
068_0331 free methodist church
068_0332 seahelo sa ho lokisa tlhapi
068_0333 bakeng sa nako e kgutshwane
068_0335 bakeng sa nako ya boholo
068_0338 original game boy
068_0340 san francisco giants
068_0341 kgopolo ya hore dihlahiswa tse
068_0342 ke molaodi kakaretso kapa o
068_0344 internet protocol suite
068_0345 new york yankees
068_0346 lebelo la ho potoloha ha
068_0354 aterese ya moo o dulang
068_0356 ka nepo le ho boloka
068_0358 law enforcement agencies
068_0359 north west company
068_0361 le dipehelo tse ding tse
068_0364 bill
068_0365 senqu
068_0369 valhalla
068_0370 eighty years war
068_0371 midrand
068_0373 sa sepolesa sa afrika borwa
068_0375 tadimilwe thibelo ya tlhodisano le
068_0376 ya mahola le dikokwanyana ka
068_0378 proffesor
068_0379 hlahisa dijothollo di phahame haholo
068_0382 kopo ya phemiti ya bodulo
069_0002 electron transport chain
069_0005 disebediswa tse seng di ile
069_0006 sa witblits se neng se
069_0007 united states
069_0008 empire
069_0009 miller's
069_0010 ya mobu bakeng sa ntshetsopele
069_0011 bafta winners people
069_0015 kofi
069_0019 american film producers
069_0020 di tswela pele ho sa
069_0021 e ne e se e
069_0023 october
069_0025 hore mobu o na le
069_0027 modern orthodox judaism
069_0029 congressional gold medal
069_0030 seo o hopotseng ho se
069_0031 haufi le wena kapa ba
069_0032 american jewish people
069_0033 dineo
069_0036 ba lakatsang ho sebetsa jwalo
069_0039 poids et mesures
069_0041 lokelang ho fetolelwa bafetoleding ba
069_0043 ho behela taelo ka thoko
069_0044 september
069_0045 mabapi le tlhahiso ya koro
069_0047 tlwaelo e ke ke ya
069_0051 ho tshwarella nako e telele
069_0052 ha eba kere e potolohisang
069_0053 ya tshwereng thaetlele kapa monga
069_0058 american male singers
069_0059 red blood cells
069_0064 van der waals
069_0068 national hockey league
069_0069 di ka etswa hape le
069_0070 ka dikopi tse tiiseleditsweng tsa
069_0071 tlasa bolaodi ba mmuso wa
069_0072 common law jurisdictions
069_0073 tsa larvae hammoho le mahe
069_0074 tlhokeho ya mosebetsi wa ho
069_0075 setefikeiti sa boingodiso ba koloi
069_0077 afrika borwa ha kopo e
069_0078 ozone layer protection
069_0081 ho ntse ho na le
069_0082 numeric character references
069_0085 wa etsa tshebetso tsa kgwebisano
069_0086 randburg
069_0087 fifa world cup
069_0090 international atomic energy
069_0091 ha re sebetsa mmoho re
069_0092 e kenella tlase mobung le
069_0093 ya ngaka ya diphoofolo ya
069_0094 ya ho tswela pele ha
069_0095 ke molaodi kakaretso kapa o
069_0097 central
069_0098 randfontein
069_0100 pholisi ya naha ya batjha
069_0102 ba lefapha la ditaba tsa
069_0104 o na le diterekere le
069_0106 a diphoofolo tsa afrika borwa
069_0107 valhalla
069_0108 ha e kenyeletse hlapi ya
069_0109 ho tloha sebopehong sa kgale
069_0110 united states senate
069_0112 bakeng sa morwalo o mong
069_0113 john
069_0115 ka nepo le ho boloka
069_0116 ba ngodise ho south african
069_0117 mesebetsi e itseng ka ho
069_0118 nakong eo masimo a tlohetsweng
069_0119 ka nngwe e na le
069_0120 president george
069_0121 makgoweng
069_0122 recent common ancestor
069_0124 bridgeport
069_0125 akhaonteng e latelang ya banka
069_0126 history
069_0127 re kopa hore o ele
069_0129 e fumaneha ka potlako weposaeteng
069_0130 army air corps
069_0133 madison square garden
069_0135 central
069_0136 le ho tloswa ha matlakala
069_0137 haholo ke moruo wa tsona
069_0141 ntswaki
069_0143 human development index
069_0144 fact date august
069_0145 following world war
069_0148 batho
069_0149 early church fathers
069_0150 ho etsa kopo ya taelo
069_0152 bridgeport
069_0154 ya etsang kopo ya tokomane
069_0155 tadimilwe thibelo ya tlhodisano le
069_0157 naha ya afrika borwa kapa
069_0158 united states census
069_0159 foreign direct investment
069_0160 valhalla
069_0161 le hore se sebetsa jwang
069_0162 senqu
069_0163 rona bo tataiswe haholo ke
069_0164 ho se ho kenwe ho
069_0166 president george
069_0171 dingane
069_0172 tsosoloso ya boemo ba theshiari
069_0174 dutch east india
069_0175 bona ba na le tokelo
069_0176 hospital
069_0177 ho suthisa ka ho ya
069_0179 provenseng kang ho tla ba
069_0180 proffesor
069_0182 complaints
069_0183 kenngwa ha jine ya bt
069_0185 mabapi le tlhahiso ya koro
069_0186 sebediswa ho laola lebelo la
069_0187 leqephe la pele la foromo
069_0188 bakeng sa nako e kgutshwane
069_0189 argentina ho ya afrika borwa
069_0191 red blood cells
069_0192 ho se na motho ya
069_0193 bophelong
069_0194 award winning authors
069_0195 pholisi ya naha ya batjha
069_0196 se fetileng sa hlabula e
069_0197 maseru
069_0199 feta pele hore ho na
069_0202 tsa lekgetho di ka phethahatswa
069_0203 mahareng a phato ho fihlela
069_0204 etsa hore balemi ba kgone
069_0205 history
069_0206 ya ngaka ya diphoofolo ya
069_0207 saint john river
069_0208 ho sireletsa le ho matlafatsa
069_0213 butlebutle ka mokgwa o ke
069_0215 hore mobu o na le
069_0216 peo ya ona e ka
069_0217 midrand
069_0218 bafta winners people
069_0219 nuclear test ban
069_0220 kgahlanong le dikgoka ho basadi
069_0221 seo a lokelang ho se
069_0223 o tshwanetse ho ba le
069_0224 ding le tse ding tse
069_0225 new york jets
069_0226 e le hore ba tle
069_0227 court ha e le traste
069_0229 tshebetso ya botsebi ba saense
069_0232 moscow state university
069_0234 dipuo tsa afrika borwa tsa
069_0235 golden globe film
069_0236 screen actors guild
069_0237 primitive recursive functions
069_0238 holy hand grenade
069_0239 tlamehile maoto le matsoho ho
069_0240 mahola e tshwanetse ho etswa
069_0242 red blood cells
069_0243 miller's
069_0244 eighty years war
069_0247 bay
069_0248 ntshetsopele ya dipeo tsa oli
069_0249 supreme court ruled
069_0250 kamohelo ya ho sebetsa jwalo
069_0256 bragg
069_0258 efe kapa efe eo ho
069_0259 boleng ba bophelo ba batho
069_0260 harry
069_0261 new york yankees
069_0263 tikoloho
069_0264 tlhokeho ya mosebetsi wa ho
069_0266 ya thuso bakeng sa ho
069_0267 church turing thesis
069_0270 hall
069_0271 ya poso e sa risefuwang
069_0272 mme re tshepa hore moya
069_0273 ya kopo ofising e haufi
069_0274 moahi wa naha ya afrika
069_0276 mabapi le mefuta e metle
069_0278 tsa tokisetso tsa lekgetho di
069_0279 e sebetswa letsatsing leo e
069_0280 congressional gold medal
069_0281 ba ka hodimo ho dilemo
069_0284 mesebetsi efe ya ho mmaraka
069_0286 ha re sebetsa mmoho re
069_0287 ha fela ho sa ntse
069_0289 october
069_0291 man
069_0293 electron transport chain
069_0295 ho hlokeha lengolo la tumello
069_0297 common law jurisdictions
069_0298 good
069_0300 grammatical
069_0301 nfc championship game
069_0302 tlwaelo e ke ke ya
069_0303 tlhahiso ya dijothollo mobung o
069_0305 ya mahola le dikokwanyana ka
069_0306 seng feela ke ba buang
069_0307 ho lefa molato wa hao
069_0309 a diphoofolo tsa afrika borwa
069_0310 junior high school
069_0311 kgothalletsa ka matla tshebediso ya
069_0312 internet protocol suite
069_0313 van der waals
069_0314 ka morero wa ho matlafatsa
069_0315 ya tshwereng thaetlele kapa monga
069_0316 kofi
069_0317 dikarolo dife kapa dife tse
069_0318 golden globe winners
069_0319 mesebetsi e itseng ka ho
069_0320 ditaba tse amanang le molao
069_0322 bad
069_0323 fifa world cup
069_0325 power parity comparisons
069_0327 nna ya haella ka ha
069_0328 san francisco giants
069_0329 pakeng tsa dikarolwana tsa mobu
069_0330 american film producers
069_0331 russian civil war
069_0332 protea
069_0338 buddhism
069_0339 south asian association
069_0340 system
069_0341 di be tharo mme o
069_0342 convention
069_0343 royal albert hall
069_0347 o neng o rena ditherisanong
069_0348 ho tla etswa ho latela
069_0349 ya phemiti ya bodulo ba
069_0350 big bang model
069_0353 fact date march
069_0354 states environmental protection
069_0356 original game boy
069_0357 supreme allied commander
069_0358 tlasa merero e hlwauweng mona
069_0361 free methodist church
069_0362 palestine liberation organization
069_0366 ile wa rekisetswa lefapha la
069_0367 mokgwa wa elektroniki kapa khaontareng
069_0369 indastering e batsi ya temo
069_0371 madison square garden
069_0376 kgatello ya tshebediso ya mefuta
069_0377 kopi e tiiseditsweng ya bukana
069_0378 rala mme o romele ditokomene
069_0379 ba ngodise ho south african
069_0380 international atomic energy
069_0381 la dibokonyana tsena tse salang
069_0382 naha ya afrika borwa ba
069_0383 ka mokgwa o sa tlwaelehang
069_0385 lebelo la ho potoloha ha
069_0386 magnetic resonance imaging
069_0388 le eneji le la dikgwebo
069_0389 afrika borwa ha kopo e
069_0391 tla tshwarwa ka mokgwa o
069_0393 hore menyenyetsi e mabapi le
069_0394 tla romelwa seteisheneng sa mapolesa
069_0396 mme hona ho tla ya
069_0397 sehlopheng sa rona sa tshebetso
069_0398 leng se bolelang hore ho
069_0399 numeric character references
069_0400 john
069_0401 tumello e ngotsweng fatshe e
069_0402 wa etsa tshebetso tsa kgwebisano
069_0404 lokelang ho fetolelwa bafetoleding ba
069_0406 lekgotla la ho ntshuwa ha
069_0407 french west africa
069_0408 lefapheng la kgwebo le indasteri
069_0409 se kgethollwe ho ya ka
069_0410 mabitso a bonkgetheng bakeng sa
069_0411 blood
069_0412 dikopo tse sa tlatswang ka
069_0413 great lakes region
069_0414 ya pele e neng e
069_0416 borwa e se nang morabe
069_0420 ka baka hore a lefiswe
069_0421 le hore re tle re
069_0422 phemiti ya ho rafa kapa
069_0424 di tswela pele ho sa
069_0426 aterese ya moo o dulang
069_0427 tlhahiso ya poone le soneblomo
069_0428 randburg
069_0429 seahelo sa ho lokisa tlhapi
069_0430 ha ho kgethwa dipuo tseo
069_0432 le ho tempuwa ke mosebeletsi
069_0433 september
069_0434 motor vehicle manufacturers
069_0435 la ditaba tsa tikoloho le
069_0436 sapoto jwalo ka ha e
069_0437 motho ofe kapa ofe a
069_0438 ho etsa hore naha ya
069_0439 bilateral immunity agreement
069_0440 seng le lefilwe bakeng sa
069_0442 le reng limited le tla
069_0445 science fiction novel
069_0446 military coup
069_0449 mabapi le sehla se tlang
069_0452 o okina ahu
069_0453 strategic air command
069_0454 strong nuclear force
069_0459 se fana ka monyetla o
069_0461 re tsebang ho sebetsa re
069_0463 disebediswa tse seng di ile
069_0464 citation needed april
070_0002 bahwebi ba sa sebedise tlwaelo
070_0004 ludwig von mises
070_0006 osama bin laden
070_0007 ho kganna ya borutehi bo
070_0013 grand
070_0015 american television actors
070_0016 average life expectancy
070_0018 ba ratang naha ya habo
070_0019 ya jwalo ha se mang
070_0020 cognitive behavioral therapy
070_0023 international astronomical union
070_0025 of access to information act
070_0026 tsa fuwa maemo a tlase
070_0027 ka moo ho ka kgonehang
070_0029 nna a fetoha sebaka moo
070_0030 lengolo la bopaki la phytosanitary
070_0034 notable examples include
070_0035 fihlwang ho yona ya mohlahisi
070_0037 ho etsa diteko tsa hiv
070_0039 wa setjhaba lawrence mushwana o
070_0040 ya seteraeke kapa ho notlellwa
070_0042 roodepoort
070_0046 mokgwa o sa tlwaelehang re
070_0047 kuno e phahameng ya dijothollo
070_0049 late twentieth centuryodowska curie
070_0051 black sea coast
070_0054 winter olympic games
070_0057 petroleum exporting countries
070_0058 received mixed reviews
070_0059 institjhute
070_0060 e ne e le sebaka
070_0062 royal dutch shell
070_0063 leondale
070_0065 transvala
070_0068 tlameha ho tlatswa ke mokopi
070_0069 lengolo le tswang ho setho
070_0071 mabapi le tshireletso ya dijo
070_0072 kansas state university
070_0075 motherwell
070_0080 box office success
070_0084 native american tribes
070_0085 david
070_0087 tone ka nngwe ho tsamaisa
070_0089 diporofensi di a nahanwa boemong
070_0093 meade
070_0094 states presidential candidates
070_0095 lokela ho phatlalatsa ditokomane hanghang
070_0097 polasi le nang le boleng
070_0101 kopanelo ya boitshwaro bo botle
070_0106 n g rjuna
070_0108 tse nyenyane le tse mahareng
070_0110 ya afrika borwa ba dilemo
070_0117 melbourne football club
070_0121 united states began
070_0125 united states dollar
070_0126 lebitsong la motho e mong
070_0127 early morning hours
070_0130 o le moahi wa afrika
070_0131 e ka nka dikgwedi tse
070_0132 real gdp growth
070_0135 sa ntsaneng a le manyane
070_0136 kansas city royals
070_0138 dennilton
070_0139 ka ntle eo e leng
070_0140 mtv video music
070_0145 basebeletsi ba lefapha la ditaba
070_0146 dintlha dife kapa dife tse
070_0147 nyetsweng eo mohatsae e leng
070_0148 power parity comparisons
070_0149 la mokopi kapa lebitso la
070_0150 kopo ya phemiti ya phapanyetsano
070_0151 day saint movement
070_0152 tshebetso tsa lekgetho la kuno
070_0154 jwalo ka o motjha mme
070_0155 moya wa ho etsa dintho
070_0156 chinese civil war
070_0157 lokela ho tlatswa ke bajalefa
070_0158 etsa hore a kgone ho
070_0162 ya hao e tla lekolwa
070_0163 african unity oau
070_0164 catherine
070_0165 inshorense ya tse sebediswang mobung
070_0166 treaty organization nato
070_0168 la nakwana le lokelwang ho
070_0170 botoloki ka mohala tsa afrika
070_0171 pope benedict
070_0173 ya b di be tharo
070_0176 afidaviti eo ho entsweng kano
070_0179 religious
070_0180 pope urban
070_0183 ka rakonteraka o na le
070_0184 los angeles county
070_0185 american musical theatre
070_0187 hard disk drive
070_0192 frank lloyd wright
070_0193 make extensive use
070_0196 nobel prize winners
070_0197 chinese communist party
070_0198 ferry
070_0200 aung san suu
070_0204 ditherisano tse kopanetsweng ke basebetsi
070_0209 ha jwale e amanang le
070_0212 union member states
070_0222 quantum field theory
070_0223 imperial japanese navy
070_0224 random access memory
070_0225 missing living people
070_0229 lejwe
070_0232 bonaparte
070_0236 mong le e mong ya
070_0237 bethal
070_0241 le haufi le la sars
070_0244 mabapi le puo tsa lefapha
070_0245 international financial institutions
070_0247 san pedro sula
070_0252 president woodrow wilson
070_0255 ya nang le phemiti ya
070_0260 knights grand cross
070_0261 ludwig von mises
070_0266 john von neumann
070_0271 ba dilemo tse ka hodimo
070_0272 diphaphosing tsa borutelo ka nako
070_0278 atlantic slave trade
070_0281 toka
070_0283 new testament canon
070_0285 tjhelete eo e seng ya
070_0287 ba mmalwa le traste ditho
070_0288 test ban treaty
070_0293 ya ka maemo a amohelehileng
070_0295 united states government
070_0300 boyce
070_0308 state university alumni
070_0310 dikarolong tsa yona tsa metso
070_0311 dintho ka mokgwa o sa
070_0314 tse tshwanetseng ho elwa hloko
070_0317 rapid economic growth
070_0319 internal combustion engine
070_0323 halleck
070_0324 francisco bay area
070_0328 british foreign secretary
070_0329 states unemployment rate
070_0330 ho bonahala eka ha ho
070_0331 jewish american writers
070_0332 guru granth sahib
070_0334 billion years ago
070_0335 le tlhokeho e potlakileng ya
070_0336 e leng commission for conciliation
070_0337 a dintwa tsa ka malapeng
070_0342 ka mokgwa o hlwahlwa ho
070_0344 ho hloleha ho etsa jwalo
070_0345 european union member
070_0348 mohahamoriti
070_0349 kopo ya bodulo ba saruri
070_0352 dutton
070_0353 major political parties
070_0354 eldorado
070_0359 hauhelele
070_0364 clarify date november
070_0369 united states army
070_0370 ebe o nka kilograma e
070_0371 grisly
070_0372 folaga e ntle ka ho
070_0373 major professional sports
070_0374 phemiti ya ditswantle ya bongaka
070_0375 security assistance force
070_0376 national public radio
070_0378 boston red sox
070_0385 tshebediso e sa lokang ya
070_0392 essential fatty acids
070_0395 di ka romelwa ofising efe
070_0404 arizona state university
070_0406 asian financial crisis
070_0407 american musical theatre
070_0408 professional american football
070_0409 austrian school economists
070_0414 pakeng tsa batho ba babedi
070_0415 ho thola ngwana ka molao
070_0417 ke molao wa motheo ho
070_0420 ya moithuti e le yona
070_0421 republican party united
070_0422 american short story
070_0425 pele ho ka jalwa sejothollo
070_0426 ho ngodisa setsi sa tlhahlobo
070_0427 memphis
070_0429 ka puo la afrika borwa
070_0431 western european countries
070_0432 ramolodi
070_0436 management
070_0437 ford motor company
070_0441 western united states
070_0442 human rights record
070_0444 islamic conference oic
070_0446 sa ho ba le seabo
070_0447 central processing unit
070_0449 marcel
070_0450 tlhahisoleseding e fumanwe bukaneng ya
070_0451 persian gulf states
070_0452 ba hore o na le
070_0454 functional programming languages
070_0455 mane ho isa ho a
070_0456 boholo ba nako e etsang
070_0457 education
070_0458 ho feta ka moo ho
070_0459 game boy advance
070_0460 ditokomane tse latelang tse tshehetsang
070_0461 ka hara lekgotla la naha
070_0462 ke sesebediswa se sebetsang ka
070_0463 tla neha ba leloko sebaka
070_0466 united states federal
070_0468 ha ba hloke ho ntsha
070_0469 o nka kilograma e le
070_0472 new york jets
070_0478 social democratic parties
070_0479 extension
070_0480 kopo ya ho ngodisa khampani
070_0484 ice hockey team
070_0487 garrick
070_0489 form hydrogen bonds
070_0491 fact date january
070_0492 ya tswelang pele ka mosebetsi
070_0494 e netefaditsweng ya bukana ya
070_0497 edwin
070_0498 itshebetsang puong jwalo ka bafetoledi
070_0500 fane ka nomoro ya akhauntu
070_0508 kutu
070_0509 tla amohelwa jwalo ka setswantle
070_0510 north germanic languages
070_0511 cosmic microwave background
071_0001 kopo e tlameha ho felehetswa
071_0002 mabapi le maemo a setjhaba
071_0003 dikgatiso tsa tshebediso ya dipuo
071_0004 make extensive use
071_0005 sebediswang wa ho phethola mobu
071_0006 sa ntsaneng a le manyane
071_0013 wa provinse ya bophelo bo
071_0014 african unity oau
071_0017 tsebiso ya lefapha le molaong
071_0020 pope benedict
071_0022 roodepoort
071_0023 e ne e le sebaka
071_0025 ya south african revenue service
071_0026 islamic conference oic
071_0028 billy
071_0029 grisly
071_0033 poone ya selelekela mabapi le
071_0035 o be o na le
071_0036 london
071_0037 nyetsweng eo mohatsae e leng
071_0042 tone ka nngwe ho tsamaisa
071_0044 sena se tla ba le
071_0050 western united states
071_0054 british west indies
071_0055 di fetwa ka bohlwahlwa ke
071_0056 le teng ka nako tsohle
071_0058 lengolo la tumello haeba o
071_0062 california state university
071_0065 khopi e netefaditsweng ya bukana
071_0066 ho kenyelletswa le ditaba tse
071_0067 austrian school economists
071_0068 western european countries
071_0069 ba bolaodi ba bophelo bo
071_0071 south sandwich islands
071_0072 hard disk drive
071_0073 e ngata ho feta e
071_0074 ya boitsebiso kapa setifikeiti sa
071_0075 aung san suu
071_0078 ya ho ba teng ho
071_0079 british foreign secretary
071_0080 european union member
071_0082 e netefaditsweng ya bukana ya
071_0083 nakong ya dikgwedi tsa hlabula
071_0084 republican party united
071_0086 leo mobu o leng ho
071_0088 afrika borwa jwalo ka ha
071_0091 liberal arts college
071_0092 united states dollar
071_0093 e ise embasing kapa misheneng
071_0094 batlang ho fumana boahi ba
071_0096 national public radio
071_0103 close air support
071_0104 islamic conference oic
071_0105 tiisitse hore ha ho hlwahlwa
071_0108 ha o a dumellwa ho
071_0110 re tla dula re ntse
071_0114 western united states
071_0116 ho ngodisa khampani e poraefete
071_0117 efe kapa efe ya yona
071_0120 batshwaruwa
071_0122 mme ho tla ya ka
071_0124 atlantic
071_0130 religious
071_0131 ho isa ho tse nne
071_0132 le moemedi wa afrika borwa
071_0133 gcis e ka fana ka
071_0134 dikokwanyana ka thibelo ya mefuta
071_0136 mora ho ba kopo ya
071_0137 management
071_0138 clarify date february
071_0139 park
071_0140 francisco bay area
071_0141 grand
071_0142 ba thupelo ba lokela ho
071_0143 hong kong island
071_0144 united states declaration
071_0146 mona afrika borwa e lokelwa
071_0148 ho ngodisa setsi sa tlhahlobo
071_0154 kapa o tshwerwe tlasa mental
071_0155 tlhakiso ya mahlale a puo
071_0158 black sea coast
071_0159 tlhahisoleseding e fumanwe bukaneng ya
071_0162 tsa ho lefa ka mora
071_0164 nna a fetoha sebaka moo
071_0165 ditletlebo
071_0166 dubious date april
071_0167 tsamaiso ya sehlopha sa boithuto
071_0168 security assistance force
071_0169 transvala
071_0172 sa moralo wa puo ho
071_0173 phemiti ya ditswantle ya bongaka
071_0175 latelang di tla kotjwa bakeng
071_0177 test ban treaty
071_0178 e tiiseditsweng ha ditokomane di
071_0180 mekgatlo e adimanang ka tjhelete
071_0182 ho ya ka palo ya
071_0184 haufi tsa ntshetsopele ya setjhaba
071_0187 state university alumni
071_0188 general public license
071_0189 toka
071_0191 tse tshwanetseng ho elwa hloko
071_0192 atlantic treaty organization
071_0195 kenya tshebetsong mokgwa wa ho
071_0196 ka modulasetulo wa sehlopha sa
071_0197 leondale
071_0198 united states began
071_0199 itseng ntle le ho ama
071_0201 cognitive behavioral therapy
071_0202 kapa badudi ba saruri ba
071_0203 inshorense ya tse sebediswang mobung
071_0204 motherwell
071_0205 ho tshela oli e ntjha
071_0206 hloleha ho etsa jwalo ho
071_0207 tse seng di ile tsa
071_0209 lefatshe la polasi le nang
071_0210 saense ya lekgotleng la molao
071_0211 functional programming languages
071_0212 mokopi le mohatsa hae ba
071_0214 theko ya oli e tala
071_0215 ya tse romellwang ka ntle
071_0216 sebaka moo sepudutsi se ke
071_0217 wa diphoofolo kapa bolaodi bo
071_0218 american political writers
071_0219 boholo ba nako e etsang
071_0220 tswela pele ka lenaneo la
071_0221 ho kganna ya borutehi bo
071_0223 mahola ke sera sa pele
071_0225 ho ngodisa jwalo ka setsebi
071_0226 ho teng ba bang ba
071_0227 marcel
071_0228 comic book series
071_0229 ya naha le ya matjhaba
071_0231 american musical theatre
071_0232 american free trade
071_0233 high middle ages
071_0234 random access memory
071_0235 e na le dimojule tse
071_0236 thibelang lefu ka mora ketsahalo
071_0237 phahameng ya poone le mmaraka
071_0238 kiana
071_0239 new york jets
071_0240 hubble space telescope
071_0241 europe music
071_0242 ya hao ya boitsebiso kapa
071_0245 ya grain sa ya tlhahiso
071_0246 ya ho tsamaisa tshebeletso ya
071_0247 temeng ya saense ya lekgotleng
071_0248 borwa di tlameha ho ngodiswa
071_0250 kopo ya hao e se
071_0251 bang ba tlosa pompo pele
071_0254 palestinian national authority
071_0255 sekgahla sa ho mela ha
071_0257 tlameha ho ba karolo ya
071_0259 ya hao ka tsela ya
071_0261 ba badudi ba saruri ba
071_0262 royal dutch shell
071_0263 tla ba le seabo se
071_0264 dintho ka mokgwa o sa
071_0265 theko ya sehlahiswa le bongata
071_0266 tlosa pompo pele ba ilo
071_0267 ho qetela la ho sebetsa
071_0268 ya naha e tshwereng motho
071_0269 south
071_0270 old garden roses
071_0272 petroleum exporting countries
071_0274 tsa lehae provinseng eo o
071_0275 tse haufi tsa ntshetsopele ya
071_0276 baemedi ba porofensi ho ncop
071_0277 aterese le nomoro ya mohala
071_0278 billion years ago
071_0279 ka potlako ka ho ya
071_0281 ya foromo ena e fuwe
071_0282 osama bin laden
071_0283 le katleho ya sepheo sa
071_0284 asian financial crisis
071_0285 ho fana ka ditshebeletso tse
071_0286 nka matsatsi a fihlang ho
071_0287 catherine
071_0288 samuel's
071_0289 petroleum exporting countries
071_0290 hang ha ho se ho
071_0291 reef
071_0294 dilemong tse mmalwa tse fetileng
071_0295 extension
071_0296 basebeletsi ba lefapha la ditaba
071_0297 wa ho qala wa leloko
071_0298 ena ka sepheo sa ho
071_0299 animated television series
071_0300 science fiction hall
071_0301 notable examples include
071_0302 le ngodisitsweng mona afrika borwa
071_0304 tse ding tsa dintho tseo
071_0305 ho etsa kopo ya tumello
071_0306 ka kamano ya ho se
071_0307 ha eba o na le
071_0308 moo se sa tshwanelang se
071_0309 dilemong tse ngata tse fetileng
071_0310 pakeng tsa batho ba babedi
071_0312 ba puo e tla hloka
071_0313 le tsela e telele eo
071_0314 german air force
071_0315 malwetse a pustule a bakwang
071_0316 ho itsebisa jwalo ka ntate
071_0317 la nakwana le lokelwang ho
071_0318 ho thehwa ha diyuniti tsa
071_0319 ho beha leihlo tshebediso ya
071_0320 mananeo a mmuso a ho
071_0321 ho tla nne ho dule
071_0322 tswa dinaheng tsa ka ntle
071_0323 semmuso ya lekgetho e ka
071_0326 jwalo ka ha ho bontshitswe
071_0327 boston red sox
071_0330 ancient near east
071_0331 sound
071_0332 mokga oo a etsang kopo
071_0333 lejwe
071_0334 national baseball hall
071_0336 ka moo ho ka kgonehang
071_0337 tshebetso tsa lekgetho la kuno
071_0338 setsheng sa bafu sa poraefete
071_0339 fihlwang ho yona ya mohlahisi
071_0340 american science fiction
071_0343 hlalositsweng bakeng sa ditjhelete tse
071_0345 ofisi ya iss ya afrika
071_0346 grain sa ya tlhahiso ya
071_0347 tsa palamente di tlameha ho
071_0348 tlhekelo ka letona la bonono
071_0350 letowana
071_0351 le hore re kgone ho
071_0352 station
071_0353 tsa diporofensi di a nahanwa
071_0356 open source initiative
071_0357 le ho haha setjhaba sa
071_0359 khampani kapa khampani ya ba
071_0360 knights grand cross
071_0361 ho ba le seabo lenaneong
071_0363 sebokeng sa naha bakeng sa
071_0365 dennilton
071_0366 larry
071_0367 kopo ya ho ngodisa khampani
071_0368 of access to information act
071_0369 president harry
071_0370 ka hara lekgotla la naha
071_0372 roman catholic archbishops
071_0373 ya tlhahisoleseding tshebetsong ya toka
071_0374 ka mora nako e itseng
071_0375 pro football hall
071_0376 war political
071_0377 pimville
071_0378 ha eba poone e iswa
071_0379 united states air
071_0381 ya sebolayakokwanyana seo o se
071_0382 ke wa qobella molemi ho
071_0383 tshwaneleha ka mora nako e
071_0386 kansas city royals
071_0387 balemi ba ntseng ba thuthuha
071_0388 bethal
071_0389 ludwig von mises
071_0390 tlameha ho balwa ka botebo
071_0391 rapid economic growth
071_0394 le tumello e ngotsweng fatshe
071_0398 a kopane le nako eo
071_0400 ho fumana kalafo ya bongaka
071_0401 tse lokelang ho ba ka
071_0402 o nka kilograma e le
071_0403 early morning hours
071_0404 ho bonahala eka ha ho
071_0405 tshwaneleha le moruo wa tshebetso
071_0406 ke mohlodi wa bohlokwa wa
071_0407 kopo ya bodulo ba saruri
071_0408 garrick
071_0409 rephaboliki
071_0410 di ka qojwang ka teng
071_0412 rona ba ho lwantsha botlokotsebe
071_0413 le mekgwa e meng ya
071_0416 clarify date march
071_0417 botoloki ka mohala tsa afrika
071_0418 nobel prize winners
071_0419 eldorado
071_0420 memphis
071_0421 tlhekelo
071_0426 hloka tumello e ikgethang e
071_0427 dipalopalo
071_0428 ke molao wa motheo ho
071_0429 la ho qala la nakwana
071_0430 box office success
071_0431 matsatsi a leshome eo ka
071_0433 ho fafatsa kgahlanong le mahola
071_0434 mane ho isa ho a
071_0435 ho etsa diteko tsa hiv
071_0437 american nobel laureates
071_0438 game boy advance
071_0439 sa silafatsa phepelo ya metsi
071_0440 ba le seabo ha basadi
071_0441 meade
071_0442 ya bt papisong le mekgwa
071_0445 sena se ka qetella ka
071_0448 eo ho dumellanweng ka yona
071_0451 valence bond theory
071_0452 frank lloyd wright
071_0453 united nations high
071_0455 army occupied cypriot
071_0456 dintlha dife kapa dife tse
071_0457 ntlafatsa polokeho le tshireletso ya
071_0458 american sign language
071_0460 seetebosigo
071_0463 ice hockey team
071_0464 hloka bokgoni ba ho phetha
071_0466 dikgopo tsa mahlaku hloohong ya
071_0471 leng hore ha ho hlokehe
071_0472 nang le tokelo ya ho
071_0473 music awards winners
071_0475 mmala o motsho le bosweu
071_0476 professional american football
071_0477 boyce
071_0478 northern
071_0480 tsa tlhahlobo tse molaong mme
071_0481 nyetseng nyetsweng eo mohatsae e
071_0482 ferry
071_0483 tlameha ho felehetsa kopo ka
071_0484 new testament canon
071_0488 ho ntlafatsa boleng ba bophelo
071_0489 e ya weposaeteng ya lefapha
071_0490 morao ka dilemo tse ngata
071_0493 qhamakwane
071_0494 kamano pakeng tsa theko le
071_0495 john von neumann
071_0496 mong le e mong ya
071_0497 los angeles county
071_0498 mohahamoriti
071_0499 ya moithuti e le yona
071_0503 wayne state university
071_0504 chinese communist party
071_0505 tswang dipuong tsa sehlopha sa
071_0507 sehla se hlahlamang sa ho
071_0508 hloka bokgoni ba ho nehelana
071_0509 di fapana ho ya ka
071_0511 ho phetholwa ha pele ha
071_0513 test ban treaty
071_0514 le haufi le la sars
071_0515 ho etsa qeto mabapi le
071_0516 ya hao setatementeng sa banka
071_0518 le ba nang le seabo
071_0522 itshebetsang puong jwalo ka bafetoledi
071_0523 ya afrika borwa ba dilemo
071_0524 lengolo la bopaki la phytosanitary
071_0525 jwalo ka o motjha mme
071_0526 moo o ile wa sebediswa
071_0528 dutton
071_0529 ya seteraeke kapa ho notlellwa
071_0530 education
071_0531 lengolo le tswang ho setho
071_0532 hang ka selemo ka mora
071_0534 na le tshepo ya hore
071_0535 a mmalwa ho ya dibekeng
071_0536 mtv video music
071_0537 palamente ya rephaboliki ya afrika
071_0538 terekere le disebediswa tsa temo
071_0539 form hydrogen bonds
071_0540 lokela ho tlatswa ke bajalefa
071_0541 united arab emirates
071_0542 dikarolong tsa yona tsa metso
071_0547 ebe o nka kilograma e
071_0548 e leng commission for conciliation
071_0549 bahwebi ba sa sebedise tlwaelo
071_0550 ya beke le beke ya
071_0551 tekolo botjha ya ditlwaelo le
071_0552 american musical theatre
071_0553 received mixed reviews
071_0555 batho ba habo rona hore
071_0556 ho na le ditsela tse
071_0558 president woodrow wilson
071_0559 afidaviti eo ho entsweng kano
071_0560 late twentieth centuryodowska curie
071_0561 kuno e phahameng ya dijothollo
071_0562 tla tswela pele ho sebetsa
071_0563 states presidential candidates
071_0564 ho latela dipehelo tsa molao
071_0565 north west company
071_0566 ya b di be tharo
071_0567 ya ka maemo a amohelehileng
071_0568 lebitsong la motho e mong
071_0569 institjhute
071_0570 nakong ya matsatsi a balemi
071_0571 native american tribes
071_0573 power parity comparisons
071_0574 motho ya jwalo ha se
071_0575 bonaparte
071_0577 quantum field theory
071_0578 social democratic party
071_0579 chinese civil war
071_0580 american short story
071_0581 missing living people
071_0582 civil class
071_0583 jwaloka ha o fetisitswe le
071_0584 central processing unit
071_0585 clarify date november
071_0586 ditokomane tse latelang tse tshehetsang
071_0587 edwin
071_0588 ke e nngwe ya dintlha
071_0589 dipaterone tsa pula le ho
071_0590 a se ke a kena
071_0591 hore ditho tsa palamente di
071_0592 ho balwa ka botebo le
071_0593 e nngwe ho ya ho
071_0594 ha jwale e amanang le
072_0001 bragg
072_0003 empire
072_0009 tse ding le tse ding
072_0011 sa witblits se neng se
072_0017 ho se ho kenwe ho
072_0018 san francisco giants
072_0020 midrand
072_0026 magnetic resonance imaging
072_0028 president george
072_0030 system
072_0031 junior high school
072_0047 september
072_0058 united states army
072_0060 tlasa bolaodi ba mmuso wa
072_0062 potter's
072_0064 mme re tshepa hore moya
072_0065 tlhokeho ya mosebetsi wa ho
072_0066 bilateral immunity agreement
072_0069 gibbon
072_0073 haufi le wena kapa ba
072_0076 e nngwe ya tsona e
072_0078 ngotsweng ya ho ngodisa ofising
072_0079 ho behela taelo ka thoko
072_0085 o motsho le o mosweu
072_0086 la afrika borwa la basebetsi
072_0088 tjhelete ya hae e kenang
072_0095 tlhahiso e tswetseng pele ya
072_0099 following world war
072_0101 hore mobu o na le
072_0106 chancellorsville
072_0109 kopo ya setefikeiti sa ho
072_0110 ya thuso bakeng sa ho
072_0111 lekgotla la ho ntshuwa ha
072_0114 screen actors guild
072_0115 average family size
072_0116 ha eba kere e potolohisang
072_0117 randburg
072_0118 ozone layer protection
072_0119 man
072_0121 formal diplomatic relations
072_0124 citation needed april
072_0128 united states president
072_0131 motho a tshwerweng ho yona
072_0134 tse phahameng tsa taolo ka
072_0141 holy hand grenade
072_0142 ka nepo le ho boloka
072_0145 nfc championship game
072_0147 bafta winners people
072_0148 harry
072_0151 sam
072_0156 fiction television series
072_0158 nelson mandela le thabo mbeki
072_0160 american psychiatric association
072_0167 common law jurisdictions
072_0170 ha re sebetsa mmoho re
072_0171 fuwa ditokelo tsa bona tsa
072_0172 seng le lefilwe bakeng sa
072_0175 kopo ya laesense ya sekepe
072_0176 best foreign language
072_0182 randfontein
072_0184 argentina ho ya afrika borwa
072_0188 ditaba tsena di nkilwe thutong
072_0190 articles including recorded
072_0191 buddhism
072_0192 complaints
072_0193 congressional gold medal
072_0194 van der waals
072_0199 french west africa
072_0201 motho ya tshwereng thaetlele kapa
072_0204 ha eba o hloleha ho
072_0205 american male singers
072_0207 efe kapa efe eo ho
072_0208 tswa ho monga setsha seo
072_0210 primitive recursive functions
072_0218 north germanic languages
072_0220 electron transport chain
072_0221 o na le diterekere le
072_0230 leqephe la pele la foromo
072_0231 central
072_0235 strong nuclear force
072_0236 golden globe winners
072_0240 ka tsela e ke keng
072_0243 terekere le disebediswa tsa polasing
072_0244 environmental protection agency
072_0246 mesebetsi e itseng ka ho
072_0249 mesebetsi efe ya ho mmaraka
072_0252 di tswela pele ho sa
072_0254 dipeo le dipeo tse hlahang
072_0255 ka morero wa ho matlafatsa
072_0256 feteng dikgwedi tse tharo kapa
072_0258 se fana ka monyetla o
072_0259 laesense ya boditjhaba ya ho
072_0260 senqu
072_0262 e leng se etsang hore
072_0264 ya mobu bakeng sa ntshetsopele
072_0265 ofisi ya lefapha le haufi
072_0266 ha ho kgethwa dipuo tseo
072_0267 kgatello ya tshebediso ya mefuta
072_0269 south asian association
072_0271 free methodist church
072_0272 television shows set
072_0273 baheno
072_0274 sebedisa tlhahisoleseding e kentsweng ke
072_0276 motor vehicle manufacturers
072_0277 grammatical
072_0279 protea
072_0280 ile wa rekisetswa lefapha la
072_0281 durban
072_0283 e tswang ho registrar of
072_0285 o ne a atisa ho
072_0286 american jewish people
072_0288 seo o hopotseng ho se
072_0290 best supporting actor
072_0292 tshebeletso ya poso e sa
072_0293 tse ka hodimo tsa mobu
072_0298 ka baka hore a lefiswe
072_0299 fifa world cup
072_0300 recent common ancestor
072_0301 madison square garden
072_0302 a diphoofolo tsa afrika borwa
072_0306 united states geological
072_0308 award winning authors
072_0311 american film producers
072_0312 balemi ba batjha ba ka
072_0314 history
072_0318 national hockey league
072_0319 strategic air command
072_0320 e ntshitsweng ke bolaodi bo
072_0322 modern orthodox judaism
072_0324 sebetsa jwalo ka borasaense ba
072_0326 tlamehile maoto le matsoho ho
072_0327 e nang le share capital
072_0331 supreme allied commander
072_0337 phepelo ya dijo tsa polasing
072_0342 ya selemo kapa ya sehla
072_0347 hore ba kgone ho ba
072_0348 ho tloha sebopehong sa kgale
072_0351 united states
072_0354 bridgeport
072_0356 roman catholic priests
072_0360 madison square garden
072_0361 church turing thesis
072_0362 saense ya tlhaho dikri diploma
072_0364 ho suthisa ka ho ya
072_0366 european economic area
072_0370 tshebetso e etsang hore ho
072_0371 united states senate
072_0372 october
072_0373 le ho romela ditokomane ho
072_0377 ha fela ho sa ntse
072_0378 nuclear test ban
072_0379 moo ho ipehilweng ka tsela
072_0390 setifikeiti sa tswalo sa afrika
072_0393 recreation
072_0398 tsa larvae hammoho le mahe
072_0403 federal trade commission
072_0405 mahola e tshwanetse ho etswa
072_0407 foreign direct investment
072_0410 mabapi le mefuta e metle
072_0413 saint john river
072_0414 united states census
072_0420 eo re neng re e
072_0422 palestine liberation organization
072_0424 russian civil war
072_0428 mabapi le ho sebedisa poone
072_0429 ka nngwe e na le
072_0430 mmalwa le traste ditho tsohle
072_0434 banna le basadi ba na
072_0437 human development index
072_0439 tailor
072_0440 mabitso a bonkgetheng bakeng sa
072_0441 science fiction novel
072_0447 nako e telele ho tiisitse
072_0451 good
072_0452 proffesor
072_0454 national football team
072_0460 power parity comparisons
072_0462 maano a tsona ho latela
072_0464 ho ntsha raporoto ya radiology
072_0467 golden globe film
072_0469 states environmental protection
072_0477 centrally planned economy
072_0478 kontane kapa ka tjheke e
072_0488 royal albert hall
072_0489 leng se bolelang hore ho
072_0493 hospital
072_0494 liberal arts college
072_0495 lefuweng bakeng sa tokelo ya
072_0498 a hlahisa dikgwebo tsa tsona
072_0501 animated television series
072_0512 open source initiative
073_0007 health
073_0009 palohare ya phofudi ya selemo
073_0011 cambridge university press
073_0014 market prices estimated
073_0018 dar es salaam
073_0027 president abraham lincoln
073_0030 agriculture organization fao
073_0033 mme ho kenwe ho lona
073_0036 nobel peace prize
073_0038 best adapted screenplay
073_0039 red hot chili
073_0041 ralph waldo emerson
073_0042 fact date november
073_0044 royal national theatre
073_0045 e leng independent complaints directorate
073_0049 hamburg
073_0051 ditjeo di tla behwa ke
073_0054 nations high commissioner
073_0067 ya polasi mabapi le phaello
073_0068 functional programming languages
073_0071 international financial institutions
073_0084 programming languages created
073_0087 sir isaac newton
073_0094 medieval islamic world
073_0097 fact date december
073_0099 le hore dipuo tsa rona
073_0103 michael
073_0109 golden gate bridge
073_0110 total land area
073_0118 birth missing living
073_0119 operation enduring freedom
073_0121 rational choice theory
073_0123 zeerust
073_0134 kutung ka baka la dibokonyana
073_0135 united states naval
073_0140 second continental congress
073_0145 pope julius
073_0147 ka kotjwa ho registrar of
073_0148 ka mora ho pudutsa ha
073_0149 ha ditho tse hlomphehang di
073_0164 amino acid residues
073_0167 vicksburg
073_0169 nuclear chain reaction
073_0173 mayflower
073_0175 coronary artery disease
073_0177 dubious date march
073_0180 arthur conan doyle
073_0184 getrude
073_0188 socialist workers party
073_0190 mdda
073_0195 needed date august
073_0201 ditho tsa palamente di tlameha
073_0204 guru granth sahib
073_0205 grand theft auto
073_0208 countries established diplomatic
073_0211 alexandra
073_0215 league baseball teams
073_0217 bo ikgethang ba mosebetsi kapa
073_0218 distinguished service medal
073_0221 containing video clips
073_0224 reform
073_0225 crystal
073_0227 chinese civil war
073_0228 eastern orthodox church
073_0229 diyuniti tsa puo di tla
073_0230 seo feberu e tshehla e
073_0232 georgetown
073_0234 second balkan war
073_0239 million years old
073_0242 south american nations
073_0243 single transferable vote
073_0244 napier ke furu e ntle
073_0247 monyetla wa ho ba le
073_0250 e arabelang ditlhoko tsa bona
073_0257 mahola a mariha a selemo
073_0261 green coffee beans
073_0263 worth
073_0265 ba le tokelo ya boqapi
073_0266 fundamental physics concepts
073_0267 population
073_0268 phupu
073_0270 e mele ke tshenyo e
073_0271 barkly
073_0276 ba hula ka tlhako tsa
073_0280 spruit
073_0281 february
073_0289 strong economic growth
073_0291 java virtual machine
073_0292 devan gar
073_0293 atomic energy agency
073_0296 vanity
073_0297 international maritime organization
073_0300 soneblomo le dinawa tsa soya
073_0308 selborne
073_0309 ruuwa le ho laolwa ka
073_0312 ya koro mabapi le balemi
073_0314 la ho ntshuwa ha batshwaruwa
073_0322 ya dintlha tsa bohlokwa ka
073_0329 lefang tonobankeng ho sebaka kapa
073_0333 pusat statistik provisionally
073_0335 interim prime minister
073_0336 cape breton island
073_0337 amateur radio operators
073_0343 middle east peace
073_0345 pele peo e hlaha mobung
073_0349 mosebetsi o leng ho wona
073_0351 nobel peace prize
073_0356 e ntse e tswela pele
073_0357 asian nations asean
073_0367 o tla romelwa seteisheneng sa
073_0368 johanesburg
073_0372 castel sant angelo
073_0375 united kingdom parliament
073_0378 ha ho ka etseha hore
073_0379 cambridge university press
073_0381 etswa ka puo ya kgetho
073_0391 operation desert storm
073_0392 la ntshetsopele la grain sa
073_0393 civil aviation organization
073_0394 association football clubs
073_0396 ho tsamaisa seahelo sa ho
073_0397 free software movement
073_0408 europe music awards
073_0409 states coast guard
073_0410 articles containing proofs
073_0412 ba diyuniti tsa r le
073_0413 chubby
073_0415 new zealand english
073_0416 juvenal
073_0418 ya ho kganna ya borutehi
073_0421 national
073_0430 setshelo sa witblits se neng
073_0433 common law jurisdictions
073_0436 kapa ofe e mong ya
073_0444 national park service
073_0448 mme ba sa kgone ho
073_0450 communications commission fcc
073_0451 grant's
073_0453 digital signal processing
073_0456 magnetic field lines
073_0458 san diego chargers
073_0463 a hlokahetse kapa a latotse
073_0464 microwave background radiation
073_0474 digital signal processing
073_0476 boulevard
073_0479 roman catholic church
073_0480 se hlahlamang sa ho jala
073_0483 graphical user interface
073_0493 na le boikarabelo ba ho
073_0497 ralph waldo emerson
073_0503 ba bangata ba ntseng ba
073_0506 nations high commissioner
073_0522 post world war
073_0523 getrude
073_0541 nobel peace prize
073_0542 sir isaac newton
073_0545 second balkan war
073_0546 castel sant angelo
073_0549 american short story
073_0551 johanesburg
073_0552 alexandra
073_0553 distinguished service medal
073_0555 civil aviation organization
073_0556 ralph waldo emerson
073_0561 royal national theatre
073_0564 crystal
073_0576 boulevard
074_0003 baemedi ba porofensi ho ncop
074_0004 sa dikopo moo bukana ya
074_0010 sound
074_0012 palestinian national authority
074_0019 ba badudi ba saruri ba
074_0025 polasi le nang le boleng
074_0026 western european countries
074_0027 ho thola ngwana ka molao
074_0030 pakeng tsa batho ba babedi
074_0032 ludwig von mises
074_0034 e leng commission for conciliation
074_0038 itseng ntle le ho ama
074_0040 wa seboka sa naha le
074_0041 ba bolaodi ba bophelo bo
074_0043 ho sebedisa thaere e kgolwanyane
074_0044 average life expectancy
074_0046 chinese civil war
074_0049 real gdp growth
074_0052 united states government
074_0056 afidaviti eo ho entsweng kano
074_0059 internal combustion engine
074_0060 islamic conference oic
074_0061 london
074_0064 foromo ya kopo ka dikopi
074_0069 nyetsweng eo mohatsae e leng
074_0070 keketseho ya boleng ba masimo
074_0072 tjhelete eo e seng ya
074_0077 american voice actors
074_0079 jwalo ka o motjha mme
074_0080 of access to information act
074_0081 functional programming languages
074_0084 la nakwana le lokelwang ho
074_0086 ford motor company
074_0088 moo o ile wa sebediswa
074_0089 di ka qojwang ka teng
074_0090 british foreign secretary
074_0094 dintlha dife kapa dife tse
074_0100 hloleha ho etsa jwalo ho
074_0103 royal dutch shell
074_0104 boyce
074_0105 south sandwich islands
074_0110 notable examples include
074_0112 comic book series
074_0113 mafelong a kgwedi e nngwe
074_0115 ha eba poone e iswa
074_0117 ya ho ba teng ho
074_0118 lengolo le tswang ho setho
074_0119 e batlang e le ntle
074_0121 ho tshela oli e ntjha
074_0125 northern
074_0126 billion years ago
074_0127 austrian school economists
074_0128 ya ba mmalwa e ngodisitsweng
074_0131 kenya tshebetsong mokgwa wa ho
074_0134 hubble space telescope
074_0136 pope benedict
074_0143 president harry
074_0145 grisly
074_0146 pele ho ka jalwa sejothollo
074_0147 tlameha ho ba karolo ya
074_0152 united states began
074_0159 boholo ba nako e etsang
074_0167 fane ka nomoro ya akhauntu
074_0169 asian financial crisis
074_0170 e tiiseditsweng ha ditokomane di
074_0175 park
074_0177 ho fana ka beile le
074_0178 osama bin laden
074_0179 ke notary public kapa mokhomishenara
074_0183 eldorado
074_0184 o le moahi wa afrika
074_0186 professional american football
074_0190 german air force
074_0191 close air support
074_0195 ka puo ya kgetho ya
074_0196 aung san suu
074_0198 essential fatty acids
074_0203 dikgeong tsa mesebetsi ya sehlopha
074_0210 ka potlako ka ho ya
074_0215 united states declaration
074_0218 rapid economic growth
074_0219 dubious date april
074_0220 e poraefete ya ho fihlella
074_0221 state university alumni
074_0223 roodepoort
074_0225 ya boitsebiso kapa setifikeiti sa
074_0226 extension
074_0227 african unity oau
074_0228 n g rjuna
074_0233 nka matsatsi a fihlang ho
074_0234 monetary fund imf
074_0240 american nobel laureates
074_0242 positive real numbers
074_0243 institjhute
074_0244 hlalositsweng bakeng sa ditjhelete tse
074_0246 meade
074_0247 john von neumann
074_0248 ke mang ya ka etsang
074_0250 matsatsi a seng ka tlase
074_0251 garrick
074_0252 american short story
074_0256 fact date january
074_0258 romela ka mora nako ditlaleho
074_0260 david
074_0263 kansas state university
074_0265 wa provinse ya bophelo bo
074_0267 frank lloyd wright
074_0277 video game developers
074_0278 north west company
074_0279 kopo ya ho ngodisa khampani
074_0280 american free trade
074_0281 transvala
074_0283 memphis
074_0285 leo mobu o leng ho
074_0288 clarify date november
074_0289 old east norse
074_0291 international astronomical union
074_0292 social democratic party
074_0293 european union member
074_0299 persian gulf states
074_0304 winter olympic games
074_0306 leondale
074_0309 episcopal church usa
074_0310 george
074_0315 ice hockey team
074_0316 ancient near east
074_0317 tlhakiso ya mahlale a puo
074_0322 kopo e tlameha ho felehetswa
074_0323 sebokeng sa naha bakeng sa
074_0324 ho ngodisa khampani e poraefete
074_0325 ho etsa diteko tsa hiv
074_0326 war political
074_0330 nobel prize winners
074_0331 roman catholic archbishops
074_0332 diporofensi di a nahanwa boemong
074_0334 old garden roses
074_0335 hard disk drive
074_0338 new testament canon
074_0341 king james version
074_0344 gcis e ka fana ka
074_0347 republican party united
074_0348 atlantic treaty organization
074_0351 ya naha le ya matjhaba
074_0352 melbourne football club
074_0354 ka hlaloswa ka mokgwa o
074_0355 ke molao wa motheo ho
074_0358 pimville
074_0360 kgothalletswa ho ithuta dipuo tse
074_0361 cognitive behavioral therapy
074_0363 dintho ka mokgwa o sa
074_0364 tshebediso e sa lokang ya
074_0365 states district court
074_0368 lokela ho lefa lekgetho la
074_0369 temeng ya saense ya lekgotleng
074_0372 kopo ya hao e se
074_0373 ke wa qobella molemi ho
074_0377 native american tribes
074_0379 le tumello e ngotsweng fatshe
074_0382 guru granth sahib
074_0383 management
074_0384 ba dilemo tse ka hodimo
074_0385 sexually transmitted diseases
074_0386 early morning hours
074_0389 form hydrogen bonds
074_0391 high middle ages
074_0393 american sign language
074_0396 knights grand cross
074_0397 united states dollar
074_0398 major professional sports
074_0399 american musical theatre
074_0400 lekala la thuto le thupelo
074_0401 western united states
074_0403 box office success
074_0404 hong kong island
074_0405 etsa hore a kgone ho
074_0406 toka
074_0407 western united states
074_0408 terekere le disebediswa tsa temo
074_0410 american science fiction
074_0413 petroleum exporting countries
074_0414 northern mariana islands
074_0415 saense ya lekgotleng la molao
074_0416 hore ditho tsa palamente di
074_0417 di ka romelwa ofising efe
074_0418 inshorense ya tse sebediswang mobung
074_0419 samuel's
074_0420 nakong ya matsatsi a balemi
074_0421 make extensive use
074_0422 ho ba motswadi wa letholwa
074_0424 francisco bay area
074_0425 ditokomane tse latelang tse tshehetsang
074_0428 imperial japanese navy
074_0430 ludwig von mises
074_0432 states unemployment rate
074_0434 tlhahisoleseding e fumanwe bukaneng ya
074_0435 ya hao setatementeng sa banka
074_0436 american television actors
074_0437 na le tshepo ya hore
074_0439 catherine
074_0441 ho bonahala eka ha ho
074_0443 ka mokgwa o hlwahlwa ho
074_0444 aterese le nomoro ya mohala
074_0446 tlameha ho balwa ka botebo
074_0447 human rights record
074_0448 europe music
074_0449 boston red sox
074_0451 kapa badudi ba saruri ba
074_0452 united states navy
074_0454 o lokela ho etsa kopo
074_0455 dennilton
074_0462 ya south african revenue service
074_0465 phasepoto ya hao ya afrika
074_0466 bo botjha le ho sebedisa
074_0469 mekgatlo e adimanang ka tjhelete
074_0470 moo e leng hore ho
074_0471 atlantic slave trade
074_0475 kopo e ka se elwe
074_0476 religious
074_0478 ka hara naha ya afrika
074_0479 chinese communist party
074_0481 union member states
074_0483 mmala o motsho le bosweu
074_0485 ho bohlokwa ka ho fetisisa
074_0486 e tshwanetse ho phethwa ka
074_0487 grand
074_0488 game boy advance
074_0490 monyakeng
074_0494 random access memory
074_0495 seo o lokelang ho se
074_0496 united states air
074_0500 la dithuto la afrika borwa
074_0501 tsa mmala o motsho le
074_0502 dikri diploma ya dilemo tse
074_0503 ho hlaha letloleng la dipenshene
074_0504 rugby union team
074_0508 bonaparte
074_0509 states presidential candidates
074_0511 treaty organization nato
074_0513 united states federal
074_0516 mme o e tlatse ka
074_0517 late twentieth centuryodowska curie
074_0518 etsa hore ho be teng
074_0519 american football conference
074_0522 kgetho ya mefuta ya peo
074_0527 le hore hara mananeo a
074_0529 major political parties
074_0532 ditherisano tse kopanetsweng ke basebetsi
074_0538 mister
074_0539 puo ya hore tshebediso ya
074_0541 dutton
074_0542 di fapana ho ya ka
074_0544 ditshebeletso tsa sepolesa sa afrika
074_0546 tlameha ho tlatswa ke mokopi
074_0551 sefe kapa sefe se ka
074_0555 le tlhokeho e potlakileng ya
074_0566 president woodrow wilson
074_0572 re batla ho tswela pele
074_0573 quantum field theory
074_0578 province
074_0583 international financial institutions
074_0585 qhamakwane
074_0587 power parity comparisons
074_0592 palamente ya rephaboliki ya afrika
074_0593 world trade center
074_0596 boemong bo hodimo bakeng la
074_0600 civil class
074_0603 kutu
074_0604 reactive oxygen species
074_0606 ho na le ditsela tse
074_0610 ebe o nka kilograma e
074_0612 british west indies
074_0613 central processing unit
074_0615 missing living people
074_0616 higher education institutions
074_0617 mtv video music
074_0618 association football clubs
074_0619 hopola hore re kgona ho
074_0621 presidential representative democratic
074_0623 mohahamoriti
074_0628 education
074_0631 moo ntate wa hae a
074_0633 sherman's
074_0634 dinepe tse pedi tsa boholo
074_0635 united states relations
074_0637 social democratic parties
074_0639 edwin
074_0640 ridgeway
074_0646 zimbabwe
074_0648 national park service
074_0649 supreme court justice
074_0651 cosmic microwave background
074_0652 guano islands act
074_0654 pope urban
074_0656 rugby union team
074_0659 botlhokong
074_0661 ha jwale e amanang le
074_0666 united states army
074_0668 san pedro sula
074_0671 ho etsa qeto mabapi le
074_0673 nka nako e telele ho
074_0674 ya afrika borwa ba dilemo
074_0675 received mixed reviews
074_0681 test ban treaty
074_0683 pele ho ngodiso ho ya
074_0684 ha e a tshwanela ho
074_0687 lebanese armed forces
074_0689 langton
074_0691 verify credibility dater
074_0692 duncan
074_0695 richmond
074_0698 blacksash
074_0703 clarify date november
074_0704 rock music groups
074_0713 lefu kapa kotsi e bakilweng
074_0714 karabo eo o e fumanang
074_0718 la ho qetela la ho
074_0720 le ho kenya tshebetsong ditshisinyo
074_0721 football league teams
074_0722 north atlantic treaty
074_0724 tsa ho iteanya le motho
074_0729 hore setjhaba se lekole ditaba
074_0731 ke ho fihlela ho latelang
074_0732 gross domestic product
074_0735 eyes wide shut
074_0739 art deco buildings
074_0740 ho tjheswa le ho kgutliswa
074_0744 e fumaneha lefapheng la kgwebo
074_0746 tsa tsebo tse hlokahalang ho
074_0748 ya ho fana ka beile
074_0750 declared martial law
074_0751 riverside
074_0756 tokelo ya hao ya ho
074_0758 kgetho ya bamamedi bao ho
074_0765 elections took place
074_0766 american airlines flight
074_0770 disebediswa tse fapaneng tsa ho
074_0772 medieval islamic world
074_0774 botjha le ho sebedisa mehlodi
074_0775 saint lawrence river
075_0006 motlatsi wa ofisiri ya tlhahisoleseding
075_0008 hlahisa maikutlo le makgabane a
075_0012 treaty organization nato
075_0016 american voice actors
075_0018 metal musical groups
075_0021 parkland
075_0023 seng ho ya ho se
075_0025 february
075_0026 presley
075_0027 canadian prime minister
075_0031 natural number n
075_0032 daveyton
075_0035 crystal
075_0038 prime number theorem
075_0039 international maritime organization
075_0041 mabitso le fane ho hlwaya
075_0045 ha di a tshwanela ho
075_0047 african council for natural scientific
075_0048 ho tswa porofensing ka nngwe
075_0049 french new wave
075_0050 technology
075_0055 qwaqwa
075_0059 electron degeneracy pressure
075_0061 ya hao e itshetlehileng ka
075_0063 ha se mobu ohle o
075_0069 average family size
075_0079 culture
075_0083 monaco grand prix
075_0086 professional sports leagues
075_0087 cauchy riemann equations
075_0088 roman catholic archbishops
075_0089 liberal arts college
075_0093 tsananapa
075_0094 hore re tle re kgone
075_0096 mebuso
075_0097 ka mong o tlamehile ho
075_0099 gideon
075_0100 balemi ba tshwanetse ho etsa
075_0102 afghan national army
075_0103 graphical user interface
075_0104 foreign language film
075_0107 neng kapa neng ha ho
075_0108 mosebetsi o leng ho wona
075_0109 carletonville
075_0111 ho tla etsahala eng ka
075_0112 united states presidential
075_0117 boikarabelo ba monga koloi ho
075_0118 taolo ya thepa ya truste
075_0119 sydney opera house
075_0120 mark
075_0121 lenaneo la ntshetsopele ya molemi
075_0122 brakpan
075_0123 major league record
075_0125 iowa state university
075_0127 boemong ba ho phatlalatsa moralo
075_0130 mobu
075_0131 baragwanath
075_0134 taylor
075_0135 kapa ka transfere ya elektroniki
075_0136 programming languages created
075_0139 sa ho ohla le ho
075_0140 fana ka ditaelo tsa lepato
075_0141 misheneng o haufi wa afrika
075_0142 ka nka dikgwedi tse tsheletseng
075_0143 mosadi
075_0144 jwalo ka ntate wa ngwana
075_0145 tse tlase tsa dijothollo di
075_0146 mefuta e itseng ya dipeo
075_0147 ditlhophiso tse hlalositsweng bakeng sa
075_0149 united states air
075_0151 a sehlopha sa leshome a
075_0152 a le ka hodimo ho
075_0153 programming language
075_0154 sa baballe tjhelete ho laola
075_0156 sa ho tshohlwa ka palamenteng
075_0157 o batlang ho sireletsa mollo
075_0158 president ronald reagan
075_0159 popeho ya pustule tse fifetseng
075_0160 dumela hore ha re sebetsa
075_0161 foreisi
075_0163 ho e etsa ka efiling
075_0166 best supporting actress
075_0168 tourism
075_0169 botsebi ba saense ya tlhaho
075_0170 nigel
075_0174 phetholwa ha pele ha mobu
075_0175 tsa rona di lebiswa ho
075_0176 tjhonneng ha a ka a
075_0177 ho boetse ho na le
075_0179 ke ntlha ya bohlokwa ka
075_0181 queen elizabeth
075_0183 mahola a mariha a selemo
075_0186 ho etswa qeto ya hore
075_0187 masilonyane
075_0188 ho ntse ho shejuwe mabaka
075_0189 voutu ya baloto ya sephiri
075_0192 lenaneo le ekeditsweng la mesebetsi
075_0194 service
075_0196 high school alumni
075_0200 hara sefafatsi kapa hodima sona
075_0201 nakong e ka tlase ho
075_0202 pula ya selemo ho ya
075_0203 binary search trees
075_0206 harvard university alumni
075_0207 tumahole
075_0208 tsa bohlokwa tsa lenaneo la
075_0210 ya banka ya lekgotla la
075_0211 etsa tlhahlobo ya laesense ya
075_0213 taolo ya mahola e tshwanetse
075_0214 clarify date march
075_0215 tsa kgwedi le kgwedi tse
075_0217 hlakileng ho lethathama la dipotso
075_0218 bona bo tlwaelehileng ba semolao
075_0219 rapid economic growth
075_0221 ho teng mefuta e fapaneng
075_0222 a mangata a amanang le
075_0223 di qadileng ka kamano ya
075_0224 e kgone ho kenella mobung
075_0227 ya lefu le hlahileng mosebetsing
075_0230 pudungwane
075_0232 international criminal tribunal
075_0233 ka le ka tshebedisano le
075_0236 johns hopkins university
075_0237 mondeor
075_0238 batho ba neng ba tinngwe
075_0242 english civil war
075_0243 seo e leng sa bohlokwa
075_0246 ka ho toba akhaonteng ya
075_0248 phumantsho
075_0249 le ya kgetho ya setjhaba
075_0250 amino acid sequences
075_0253 central intelligence agency
075_0256 re ile ra shebana le
075_0257 australian rules football
075_0258 agriculture organization fao
075_0260 tla jwalo ka ho lekana
075_0262 mabapi le ho phethola mobu
075_0269 ho tlang ho hatiswa ditokomane
075_0272 mmusapelo
075_0276 tokiso ya tshingwana ya peo
075_0278 mang kapa mang ya ratang
075_0279 charles sanders peirce
075_0280 ha ho hlokehe hore dileibole
075_0281 e ntle ya dimela masimong
075_0282 greenhouse gas emissions
075_0283 e be teng ya ho
075_0287 khampani ya ba mmalwa ho
075_0289 moya o ka hara thaere
075_0291 a boima a ho hola
075_0294 united states history
075_0295 josefa
075_0296 ho ya ka dintlha tse
075_0297 le tsona di ntse di
075_0298 e nepahetseng mabapi le tshebediso
075_0300 current prime minister
075_0301 fana ka dintlha tse latelang
075_0302 dark horse comics
075_0303 international monetary fund
075_0304 etsa tjheke kapa otoro ya
075_0305 east india company
075_0307 orkney
075_0309 hlokwang le boiphihlelo jwalo ka
075_0312 diyuniti tsa puo tse sebetsang
075_0313 james clerk maxwell
075_0314 germany
075_0315 la naha la diporofensi le
075_0317 dikgoka ho basadi le bana
075_0318 lebaka la ho se phele
075_0319 ke ikutlwa ke le motlotlo
075_0321 ba se nang mangolo a
075_0322 e tshwanetse ho tswa bolaoding
075_0323 soviet union relations
075_0326 operation enduring freedom
075_0327 army occupied cypriot
075_0328 president george
075_0330 toronto blue jays
075_0331 international civil aviation
075_0333 naha a lokela ho phatlalatsa
075_0334 nako e beuweng bakeng sa
075_0335 high middle ages
075_0337 mohokare
075_0338 ditshebeletso tseo ho fanweng ka
075_0340 ka hula tumello ka ho
075_0341 services
075_0342 ya seboka ya naha kapa
075_0344 scottish national party
075_0345 bohlokwa ka ho fetisisa ya
075_0348 wa ho nyehla ha dinomoro
075_0350 commedia dell arte
075_0352 international red cross
075_0354 james clerk maxwell
075_0355 mekgwa le tshebetso tsa hlophollo
075_0356 ha hlokahala hore le fane
075_0360 russian orthodox church
075_0362 ka phethahatswa le ha e
075_0364 ka nngwe ho tsamaisa koro
075_0368 charles
075_0369 mme o e romele ho
075_0372 bloemfontein
075_0373 ton club ba ileng ba
075_0374 sebetsa ka lebaka la ho
075_0375 tsa ho bea meja fatshe
075_0376 edgar allan poe
075_0378 mabapi le mongobo le menontsha
075_0383 e tlameha ho felehetswa ke
075_0384 floating point unit
075_0386 phathakalle
075_0389 moithuti ho ba mosuwe wa
075_0390 jwalo ka dithuto tsa disaense
075_0393 dilemo tse ka tlase ho
075_0396 haufi ya south african revenue
075_0398 late eighteenth century
075_0399 bonnete ba hore nako ya
075_0401 tsa mohope wa lefatshe wa
075_0404 e kenang ya truste e
075_0407 ho boletswe ka mokgwa o
075_0409 fokotsa le ho fedisa bofutsana
075_0412 maemo a tikoloho a bo
075_0417 kotjwa hore o iteanye le
075_0418 hammoho le small grain centre
075_0420 higher education institutions
075_0422 teng mefuta e mmedi ya
075_0423 kopo ka dikopi tse tharo
075_0424 states postal service
075_0425 value added tax
075_0427 civil aviation organization
075_0429 bongata boo barekisi ba ikemiseditseng
075_0430 mission
075_0432 nngwe ya ditsela tsa ho
075_0433 leano le ditaelo tse sebediswang
075_0434 ntle le tumello ya hae
075_0435 le seng le lefilwe bakeng
075_0438 lisp programming language
075_0439 ba le kutlwisiso e hlakileng
075_0441 oxford university press
075_0442 mokgi
075_0443 sa dikgwedi tse tharo tse
075_0444 lekala le ikemetseng la ditletlebo
075_0446 native american culture
075_0448 ho fana hape ka phasepoto
075_0449 mme e ke ke ya
075_0453 phela hantle kelellong kapa o
075_0457 mekgwa ya taolo ya mahola
075_0460 mang a na le dikutu
075_0461 ha ho na nako e
075_0464 monga koloi kapa thekiso ya
075_0465 etsa bonnete hore molemi ke
075_0466 mang ya jarang boikarabelo ba
075_0468 american revolutionary war
075_0470 ho ba le seabo ho
075_0471 science fiction convention
075_0473 se sebediswa mobung ha ho
075_0474 hip hop music
075_0475 tlelereke ya lekgotla e tla
075_0476 jouberton
075_0478 mohlwedi
075_0479 tlatse ka ho arohanya ditlhaku
075_0482 castel sant angelo
075_0483 ho di tsamaisa ho feta
075_0484 commission
075_0485 fumana tshwaetso ya kokwanahloko ya
075_0488 monyetla wa tlhaselo ya malwetse
075_0489 hore ho hlahlojwe boteng ba
075_0490 se tswang ho chartered accountant
075_0491 bo botle jwalo ka ha
075_0492 nako e lekaneng ho romela
075_0493 average annual precipitation
075_0495 jwalo ka ha e le
075_0497 magnetic resonance imaging
075_0499 edwind
075_0500 sa tumello ya sekiri sa
075_0506 mtv video music
076_0001 dintlha dife kapa dife tse
076_0002 fane ka nomoro ya akhauntu
076_0003 national baseball hall
076_0008 science fiction hall
076_0009 moya wa ho etsa dintho
076_0010 haufi tsa ntshetsopele ya setjhaba
076_0012 british west indies
076_0013 boyce
076_0014 hloleha ho etsa jwalo ho
076_0015 lekala la thuto le thupelo
076_0016 pope benedict
076_0018 tiisitse hore ha ho hlwahlwa
076_0020 le teng ka nako tsohle
076_0021 hloka bokgoni ba ho phetha
076_0022 ba bolaodi ba bophelo bo
076_0023 tsa fuwa maemo a tlase
076_0024 melbourne football club
076_0025 diporofensi di a nahanwa boemong
076_0026 islamic conference oic
076_0027 la ho qala la nakwana
076_0028 grand
076_0032 episcopal church usa
076_0033 ba ratang naha ya habo
076_0037 gcis e ka fana ka
076_0038 balemi ba ntseng ba thuthuha
076_0039 tshebetso tsa lekgetho la kuno
076_0040 garrick
076_0041 tshebediso e sa lokang ya
076_0043 inshorense ya tse sebediswang mobung
076_0044 army occupied cypriot
076_0045 ho ya ka palohare ya
076_0046 international astronomical union
076_0048 bahlokomedi ba bona ba molao
076_0049 ditletlebo
076_0051 tlameha ho felehetsa kopo ka
076_0052 liberal arts college
076_0053 george
076_0054 ho kganna ya borutehi bo
076_0058 american nobel laureates
076_0059 atlantic
076_0060 knights grand cross
076_0061 itseng ntle le ho ama
076_0062 leondale
076_0063 mekgatlo e adimanang ka tjhelete
076_0064 states unemployment rate
076_0066 e ise embasing kapa misheneng
076_0067 ke notary public kapa mokhomishenara
076_0070 polasi le nang le boleng
076_0073 kapa o tshwerwe tlasa mental
076_0074 positive real numbers
076_0077 ya tlhaselo e eso fihle
076_0078 rapid economic growth
076_0079 thibelang lefu ka mora ketsahalo
076_0080 o nka kilograma e le
076_0081 pakeng tsa batho ba babedi
076_0082 ka hara naha ya afrika
076_0083 ho etsa diteko tsa hiv
076_0084 kopanelo ya boitshwaro bo botle
076_0086 ho thola ngwana ka molao
076_0087 professional american football
076_0088 jwalo ka ha ho bontshitswe
076_0089 a dintwa tsa ka malapeng
076_0090 united states declaration
076_0091 e poraefete ya ho fihlella
076_0093 wa diphoofolo kapa bolaodi bo
076_0094 ho teng ba bang ba
076_0095 south sandwich islands
076_0096 latelang di tla kotjwa bakeng
076_0098 reef
076_0099 nyetsweng eo mohatsae e leng
076_0101 united states government
076_0102 ofe kapa ofe wa mmuso
076_0103 moo se sa tshwanelang se
076_0104 random access memory
076_0107 tlhahisoleseding e fumanwe bukaneng ya
076_0108 foromo ya kopo ka dikopi
076_0109 sound
076_0110 ba le seabo ha basadi
076_0113 dennilton
076_0114 ya grain sa ya tlhahiso
076_0116 valence bond theory
076_0117 sexually transmitted diseases
076_0118 bontshang kamano pakeng tsa theko
076_0124 united states dollar
076_0126 ke molao wa motheo ho
076_0127 united nations high
076_0128 american musical theatre
076_0129 mabapi le maemo a setjhaba
076_0130 e netefaditsweng ya bukana ya
076_0131 music awards winners
076_0132 dilemong tse mmalwa tse fetileng
076_0133 mona afrika borwa e lokelwa
076_0135 ikopanye le ofisi ya lefapha
076_0136 ramolodi
076_0137 united states began
076_0138 black sea coast
076_0139 catherine
076_0142 le hore ho tle ho
076_0144 lefuweng bakeng sa tokelo ya
076_0146 northern
076_0147 ya naha le ya matjhaba
076_0149 dikokwanyana ka thibelo ya mefuta
076_0152 e ne e le sebaka
076_0153 comic book series
076_0155 kopo e tlameha ho felehetswa
076_0156 le tumello e ngotsweng fatshe
076_0158 tlameha ho balwa ka botebo
076_0159 british foreign secretary
076_0160 mmala o motsho le bosweu
076_0161 western european countries
076_0162 ho ya ka palo ya
076_0164 tsa diporofensi di a nahanwa
076_0165 le ngodisitsweng mona afrika borwa
076_0166 asian financial crisis
076_0167 le kgahleho bophelong ba motletlebi
076_0169 nakong ya dikgwedi tsa hlabula
076_0170 ke wa qobella molemi ho
076_0172 kopo ya bodulo ba saruri
076_0174 nka matsatsi a fihlang ho
076_0175 ba hore o na le
076_0178 ho ntlafatsa boleng ba bophelo
076_0179 tone ka nngwe ho tsamaisa
076_0180 khopi e netefaditsweng ya bukana
076_0181 motherwell
076_0182 rephaboliki
076_0183 german air force
076_0184 wa batswadi kapa mohlokomedi wa
076_0185 ho thehwa ha diyuniti tsa
076_0187 baemedi ba porofensi ho ncop
076_0188 tse ka hodimo ho tse
076_0189 average life expectancy
076_0190 borwa di tlameha ho ngodiswa
076_0192 kopo ya phemiti ya phapanyetsano
076_0194 islamic conference oic
076_0195 animated television series
076_0197 tsa lehae provinseng eo o
076_0200 roman catholic archbishops
076_0201 seo o lokelang ho se
076_0202 ba teng ka dipuo tse
076_0203 fihlwang ho yona ya mohlahisi
076_0205 le haebe ho boletswe ka
076_0206 motho ofe kapa ofe eo
076_0208 ha eba poone e iswa
076_0209 ditlhaloso tsa lengolo la truste
076_0210 morao ka dilemo tse ngata
076_0211 king james version
076_0213 royal dutch shell
076_0214 hloka tumello e ikgethang e
076_0216 american television actors
076_0217 moahi wa afrika borwa kapa
076_0218 kapa badudi ba saruri ba
076_0219 memphis
076_0221 lokela ho phatlalatsa ditokomane hanghang
076_0222 eldorado
076_0223 ice hockey team
076_0224 sekgahla sa ho mela ha
076_0226 palestinian national authority
076_0227 sa dikopo moo bukana ya
076_0229 kgothalletswa ho ithuta dipuo tse
076_0231 war political
076_0233 box office success
076_0236 major professional sports
076_0237 union member states
076_0240 phahameng ya poone le mmaraka
076_0242 ntle mofuta wa hlapi o
076_0244 ho ngodisa khampani e poraefete
076_0245 le nngwe feela afrika borwa
076_0246 old east norse
076_0247 larry
076_0248 boston red sox
076_0250 atlantic treaty organization
076_0251 park
076_0252 phasepoto ya hao ya afrika
076_0257 hubble space telescope
076_0258 khampani kapa khampani ya ba
076_0259 sebediswang wa ho phethola mobu
076_0260 new york jets
076_0261 dintho ka mokgwa o sa
076_0262 close air support
076_0264 game boy advance
076_0265 ho itsebisa jwalo ka ntate
076_0266 leo mobu o leng ho
076_0267 eo e leng karolo ya
076_0268 clarify date february
076_0269 ya boitsebiso kapa setifikeiti sa
076_0270 le hore re kgone ho
076_0271 ferry
076_0272 american voice actors
076_0273 mabapi le tshireletso ya dijo
076_0275 theko ya sehlahiswa le bongata
076_0279 national public radio
076_0280 clarify date march
076_0281 mahola ke sera sa pele
076_0282 billy
076_0283 leano le ona o hlokometse
076_0285 northern mariana islands
076_0286 samuel's
076_0287 general public license
076_0288 frank lloyd wright
076_0289 petroleum exporting countries
076_0290 e ya weposaeteng ya lefapha
076_0291 management
076_0292 tsa tlhahlobo tse molaong mme
076_0294 puo ya bajete le setatemente
076_0295 pimville
076_0296 le moemedi wa afrika borwa
076_0297 ya tlhahisoleseding tshebetsong ya toka
076_0301 ho sebedisa thaere e kgolwanyane
076_0302 kgannelang tlhaselong e eketsehang ya
076_0304 europe music
076_0305 ho ba le seabo lenaneong
076_0307 ya hao e tla lekolwa
076_0309 ena ka sepheo sa ho
076_0310 transvala
076_0311 ho qetela la ho sebetsa
076_0313 ka baka la sephetho se
076_0314 sena se ka qetella ka
076_0316 setsheng sa bafu sa poraefete
076_0318 high middle ages
076_0320 sa moralo wa puo ho
076_0321 test ban treaty
076_0322 ka hara lekgotla la naha
076_0323 early morning hours
076_0324 wa provinse ya bophelo bo
076_0325 romela ka mora nako ditlaleho
076_0326 ho bohlokwa ka ho fetisisa
076_0327 tsamaiso ya mawatle le mabopo
076_0328 di ka romelwa ofising efe
076_0329 western united states
076_0331 di fetwa ka bohlwahlwa ke
076_0332 united states district
076_0333 nobel prize winners
076_0334 tjhelete eo e seng ya
076_0336 notable examples include
076_0338 toka
076_0340 ka mokgwa o hlwahlwa ho
076_0341 cognitive behavioral therapy
076_0342 religious
076_0343 austrian school economists
076_0345 lengolo la tumello haeba o
076_0346 grisly
076_0348 tsa palamente di tlameha ho
076_0349 matsatsi a seng ka tlase
076_0350 united states air
076_0351 ho tshela oli e ntjha
076_0352 of access to information act
076_0353 california state university
076_0354 president harry
076_0356 hard disk drive
076_0357 botoloki ka mohala tsa afrika
076_0358 re tla tswela pele ka
076_0359 republican party united
076_0360 ba badudi ba saruri ba
076_0366 states district court
076_0367 nebula award winning
076_0368 o tshwanetse ho tseba hore
076_0370 hong kong island
076_0371 seetebosigo
076_0373 imperial japanese navy
076_0374 mme ho tla ya ka
076_0375 ho fana ka beile le
076_0376 ford motor company
076_0378 european union member
076_0379 leng hore ha ho hlokehe
076_0380 make extensive use
076_0383 pro football hall
076_0384 ba hore khopi ya foromo
076_0389 re tla dula re ntse
076_0391 aterese le nomoro ya mohala
076_0392 mora ho ba kopo ya
076_0395 batshwaruwa
076_0396 bethal
076_0397 ba thupelo ba lokela ho
076_0398 hauhelele
076_0401 billion years ago
076_0403 ke boikarabelo ba moahi e
076_0405 ya south african revenue service
076_0406 khopi ya rasiti e saennweng
076_0408 matsatsi a leshome eo ka
076_0410 molaotheo wa afrika borwa o
076_0413 bakeng la tsebo ya mosebetsi
076_0414 american sign language
076_0415 dubious date april
076_0419 meade
076_0420 e bile wa bohlokwa ho
076_0425 mokga oo a etsang kopo
076_0426 o lokela ho etsa kopo
076_0427 dikgopo tsa mahlaku hloohong ya
076_0428 old garden roses
076_0429 ho beha leihlo tshebediso ya
076_0430 roodepoort
076_0431 marcel
076_0432 fact date january
076_0434 ho bonahala eka ha ho
076_0436 dife kapa dife tse amanang
076_0439 sa ntsaneng a le manyane
076_0440 ancient near east
076_0443 fact date july
076_0444 ya naha e tshwereng motho
076_0446 a sa siya wili e
076_0447 ba puo e tla hloka
076_0448 south
076_0449 african unity oau
076_0450 monetary fund imf
076_0451 petroleum exporting countries
076_0453 american free trade
076_0455 eo ho dumellanweng ka yona
076_0460 re tla sebetsa ka matla
076_0461 ka rakonteraka o na le
076_0464 security assistance force
076_0465 ka puo ya kgetho ya
076_0466 ya bt papisong le mekgwa
076_0467 pele ho ka jalwa sejothollo
076_0468 persian gulf states
076_0469 ho tswa ho moabi ya
076_0470 ka modulasetulo wa sehlopha sa
076_0473 moo e leng hore ho
076_0475 weposaeteng ya lefapha la temo
076_0477 ludwig von mises
076_0478 state university alumni
076_0480 osama bin laden
076_0482 bang ba tlosa pompo pele
076_0483 aung san suu
076_0485 functional programming languages
076_0488 francisco bay area
076_0489 ke mang ya ka etsang
076_0490 ho sebedisa lebitso le molaong
076_0491 united states navy
076_0492 video game developers
076_0493 kopo e ka se elwe
076_0494 malwetse a pustule a bakwang
076_0495 new testament canon
076_0496 ho fumana kalafo ya bongaka
076_0498 leng la mahlakore ana a
076_0499 batlang ho fumana boahi ba
076_0500 saense ya lekgotleng la molao
076_0503 clarify date november
076_0504 ya seteraeke kapa ho notlellwa
076_0505 american musical theatre
076_0506 ya nang le phemiti ya
076_0508 sehla se hlahlamang sa ho
076_0509 winter olympic games
076_0511 ka mehla bala leibole ya
077_0004 missing living people
077_0005 john von neumann
077_0006 american musical theatre
077_0007 persian gulf states
077_0011 ya south african revenue service
077_0013 northern
077_0014 monetary fund imf
077_0018 george
077_0022 tshebediso e sa lokang ya
077_0023 palestinian national authority
077_0024 hloleha ho etsa jwalo ho
077_0027 meade
077_0028 functional programming languages
077_0030 austrian school economists
077_0033 hard disk drive
077_0037 la nakwana le lokelwang ho
077_0040 positive real numbers
077_0050 kiana
077_0052 islamic conference oic
077_0053 british west indies
077_0054 e leng commission for conciliation
077_0056 north west company
077_0057 ka baka la sephetho se
077_0060 inshorense ya tse sebediswang mobung
077_0067 clarify date march
077_0071 roodepoort
077_0078 ford motor company
077_0079 dubious date april
077_0080 tsa fuwa maemo a tlase
077_0081 american musical theatre
077_0082 ho kenyelletswa le ditaba tse
077_0085 ka tsela efe kapa efe
077_0086 europe music
077_0088 botle le ditabatabelo tsa ditho
077_0090 grand
077_0091 lejwe
077_0092 le ka baka la tshebedisano
077_0093 e batlang e le ntle
077_0098 ke wa qobella molemi ho
077_0106 united states government
077_0108 war political
077_0109 guano islands act
077_0111 rona ba ho lwantsha botlokotsebe
077_0113 ena ka sepheo sa ho
077_0116 semmuso ya lekgetho e ka
077_0120 ludwig von mises
077_0125 rapid economic growth
077_0127 united states began
077_0131 ho feta ka moo ho
077_0138 african unity oau
077_0142 central processing unit
077_0148 national public radio
077_0151 native american tribes
077_0154 haufi tsa ntshetsopele ya setjhaba
077_0157 day saint movement
077_0163 institjhute
077_0164 transvala
077_0180 ferry
077_0187 ebe o nka kilograma e
077_0193 tse haufi tsa ntshetsopele ya
077_0195 ba ratang naha ya habo
077_0198 extension
077_0203 tse ding tsa dintho tseo
077_0207 northern mariana islands
077_0212 garrick
077_0215 ya foromo ena e fuwe
077_0219 music awards winners
077_0223 temeng ya saense ya lekgotleng
077_0225 early morning hours
077_0229 management
077_0234 form hydrogen bonds
077_0236 essential fatty acids
077_0237 state university alumni
077_0238 mokga oo a etsang kopo
077_0239 treaty organization nato
077_0241 leondale
077_0243 frank lloyd wright
077_0244 republican party united
077_0245 ka moo ho ka kgonehang
077_0252 grisly
077_0253 sa ntsaneng a le manyane
077_0254 ka mokgwa ofe kapa ofe
077_0258 guru granth sahib
077_0266 kansas state university
077_0269 international financial institutions
077_0273 le haufi le la sars
077_0274 o nka kilograma e le
077_0289 western united states
077_0293 tse seng di ile tsa
077_0295 chinese communist party
077_0296 david
077_0299 nka nako e telele ho
077_0300 clarify date november
077_0302 francisco bay area
077_0303 baemedi ba porofensi ho ncop
077_0306 hong kong island
077_0312 diporofensi di a nahanwa boemong
077_0320 masimo a mang le a
077_0321 mokgwa o sa tlwaelehang re
077_0330 le haebe ho boletswe ka
077_0331 sebaka moo sepudutsi se ke
077_0332 efe kapa efe ya yona
077_0340 leibole ya sebolayakokwanyana seo o
077_0344 le nngwe feela afrika borwa
077_0346 received mixed reviews
077_0351 boyce
077_0359 real gdp growth
077_0361 cognitive behavioral therapy
077_0362 ho fana ka beile le
077_0366 los angeles county
077_0367 aung san suu
077_0369 dintlha dife kapa dife tse
077_0370 winter olympic games
077_0371 internal combustion engine
077_0373 kansas city royals
077_0374 dennilton
077_0375 ke mang ya ka etsang
077_0377 fact date july
077_0379 memphis
077_0385 mtv video music
077_0387 billion years ago
077_0388 a dintwa tsa ka malapeng
077_0389 security assistance force
077_0393 professional american football
077_0398 tjhelete eo e seng ya
077_0399 petroleum exporting countries
077_0404 of access to information act
077_0406 average life expectancy
077_0407 pope benedict
077_0408 notable examples include
077_0413 nobel prize winners
077_0415 ke boikarabelo ba moahi e
077_0417 jwaloka ha o fetisitswe le
077_0418 ho fela ho potlakileng ha
077_0420 black sea coast
077_0423 ho etsa qeto mabapi le
077_0424 catherine
077_0430 wa diphoofolo kapa bolaodi bo
077_0434 osama bin laden
077_0436 le hore re kgone ho
077_0438 asian financial crisis
077_0440 kopo ya ho ngodisa khampani
077_0443 international astronomical union
077_0445 a se ke a kena
077_0451 le ona o hlokometse hore
077_0453 gcis e ka fana ka
077_0457 tse ntjha tsa ho banka
077_0458 park
077_0462 sound
077_0464 ke molao wa motheo ho
077_0465 tsa diporofensi di a nahanwa
077_0466 chinese civil war
077_0470 afidaviti eo ho entsweng kano
077_0472 pakeng tsa batho ba babedi
077_0478 moo o ile wa sebediswa
077_0480 new testament canon
077_0485 american television actors
077_0488 le kgahleho bophelong ba motletlebi
077_0490 eldorado
077_0498 kutu
077_0500 etsa hore ho be teng
077_0501 mekgwa le melao ya ho
077_0503 pope urban
077_0505 quantum field theory
077_0506 le balemi ba ntseng ba
077_0507 ho hlwaya tefo ya hao
077_0509 abednego
077_0514 major league baseball
077_0516 kgetho ya mefuta ya peo
077_0517 badudi ba saruri ba batlang
077_0529 president woodrow wilson
077_0534 mister
077_0545 bo le ka tlase ho
077_0546 supreme court justice
077_0549 savannah
077_0550 ya moithuti e le yona
077_0551 world trade center
077_0552 abdur rahman khan
077_0554 higher education institutions
077_0559 lebanese armed forces
077_0560 rugby union team
077_0561 italian roman catholics
077_0562 edwin
077_0566 north germanic languages
077_0567 ho hlaha letloleng la dipenshene
077_0568 qhamakwane
077_0569 ridgeway
077_0570 phethahatso
077_0571 dutton
077_0572 ka ho nka disampole tsa
077_0577 president
077_0578 british west indies
077_0579 mang a na le dikotola
077_0580 ho sebetsa le dinaha tse
077_0581 kenyelletswa le ditaba tse mabapi
077_0583 sherman's
077_0585 states presidential candidates
077_0590 tsa mmala o motsho le
077_0592 melongwana e seng e kgathetse
077_0593 education
077_0595 association football clubs
077_0596 cosmic microwave background
077_0602 ho kenweng ho ona ka
077_0604 tse nyenyane le tse mahareng
077_0606 butle haholo hoo balemi ba
077_0607 ho ithuta dipuo tse ding
077_0611 late twentieth centuryodowska curie
077_0612 kopo ya hao ka tsela
077_0613 itshebetsang puong jwalo ka bafetoledi
077_0615 la dithuto la afrika borwa
077_0616 bonaparte
077_0618 re batla ho tswela pele
077_0620 zimbabwe
077_0622 verify credibility dater
077_0623 dinepe tse pedi tsa boholo
077_0627 rugby union team
077_0631 tshilafatso kapa tshenyo e sa
077_0632 presidential representative democratic
077_0633 ho ya ho tse robedi
077_0634 clarence's
077_0638 botlhokong
077_0639 riverside
077_0640 duncan
077_0641 art deco buildings
077_0643 langton
077_0644 tse amohetsweng jwalo ka ditswantle
077_0646 ho teng dintlha tse mmalwa
077_0647 rock music groups
077_0648 reactive oxygen species
077_0649 north atlantic treaty
077_0651 controlled substances acte
077_0652 province
077_0654 sefe kapa sefe sa mapolesa
077_0656 ya ho a mararo a
077_0658 national park service
077_0659 le ho kenya tshebetsong ditshisinyo
077_0660 tshebetso ya ho fetola se
077_0663 tsa pele tsa mabitso le
077_0664 ya naha le ntlo ya
077_0666 belfast
077_0667 moporesidente
077_0668 american airlines flight
077_0670 ho etsa ditokiso tse hlokahalang
077_0676 blacksash
077_0677 tshebetsong ke lefapha la ditaba
077_0678 clarify date november
077_0679 ha monga thepa a rata
077_0681 kgetho ya bamamedi bao ho
077_0683 ivy
077_0684 declared martial law
077_0689 lady
078_0002 fact date january
078_0015 roodepoort
078_0016 catherine
078_0020 clarify date november
078_0026 eo ho dumellanweng ka yona
078_0029 ditlhaloso tsa lengolo la truste
078_0035 northern
078_0038 botoloki ka mohala tsa afrika
078_0040 dennilton
078_0041 di fetwa ka bohlwahlwa ke
078_0042 british west indies
078_0047 memphis
078_0052 george
078_0053 hong kong island
078_0055 europe music
078_0057 afidaviti eo ho entsweng kano
078_0060 american television actors
078_0064 theko ya sehlahiswa le bongata
078_0066 ena ka sepheo sa ho
078_0067 make extensive use
078_0068 sa ho ba le seabo
078_0070 e ka nka dikgwedi tse
078_0071 phetoho efe kapa efe e
078_0072 ford motor company
078_0073 game boy advance
078_0078 halleck
078_0086 marcel
078_0092 david
078_0098 sexually transmitted diseases
078_0099 sera
078_0101 billion years ago
078_0104 institjhute
078_0105 pakeng tsa batho ba babedi
078_0114 new testament canon
078_0118 of access to information act
078_0120 boyce
078_0121 american voice actors
078_0122 mabapi le puo tsa lefapha
078_0125 ditokomane tse latelang tse tshehetsang
078_0127 ba badudi ba saruri ba
078_0129 ka mora nako e itseng
078_0131 black sea coast
078_0142 west
078_0152 transvala
078_0153 hauhelele
078_0157 asian financial crisis
078_0160 episcopal church usa
078_0162 war political
078_0163 grand
078_0177 imperial japanese navy
078_0178 average life expectancy
078_0179 ya south african revenue service
078_0184 fact date july
078_0185 mmala o motsho le bosweu
078_0186 ancient near east
078_0187 states unemployment rate
078_0189 john von neumann
078_0193 leondale
078_0195 rapid economic growth
078_0196 gcis e ka fana ka
078_0197 tlosa pompo pele ba ilo
078_0201 religious
078_0205 hubble space telescope
078_0213 atlantic slave trade
078_0214 bethal
078_0216 northern mariana islands
078_0217 ebe o nka kilograma e
078_0222 clarify date march
078_0225 union member states
078_0226 francisco bay area
078_0227 cognitive behavioral therapy
078_0228 inshorense ya tse sebediswang mobung
078_0230 real gdp growth
078_0234 eldorado
078_0239 sound
078_0240 tlameha ho felehetsa kopo ka
078_0243 form hydrogen bonds
078_0245 nka nako e ka etsang
078_0247 comic book series
078_0249 united states declaration
078_0254 music awards winners
078_0257 winter olympic games
078_0259 american musical theatre
078_0266 tiisitse hore ha ho hlwahlwa
078_0267 jewish american writers
078_0271 president harry
078_0273 islamic conference oic
078_0274 ka puo ya kgetho ya
078_0277 ho ya ka dipehelo tsa
078_0279 african unity oau
078_0282 pimville
078_0286 international astronomical union
078_0289 knights grand cross
078_0294 hard disk drive
078_0297 dubious date april
078_0305 united states navy
078_0306 lekala la thuto le thupelo
078_0312 reef
078_0318 high middle ages
078_0319 guano islands act
078_0320 pope benedict
078_0323 ludwig von mises
078_0325 melbourne football club
078_0327 frank lloyd wright
078_0332 guru granth sahib
078_0333 united states government
078_0335 foromo ya kopo ka dikopi
078_0336 e leng commission for conciliation
078_0337 american short story
078_0339 early morning hours
078_0340 functional programming languages
078_0345 box office success
078_0346 monetary fund imf
078_0349 kopo ya phemiti ya phapanyetsano
078_0351 e tiiseditsweng ha ditokomane di
078_0356 roman catholic archbishops
078_0361 california state university
078_0366 garrick
078_0367 royal dutch shell
078_0369 ho bonahala eka ha ho
078_0374 tumellano ya nakwana le seng
078_0375 fihlwang ho yona ya mohlahisi
078_0376 british foreign secretary
078_0380 native american tribes
078_0381 ke boikarabelo ba moahi e
078_0383 tlameha ho ba karolo ya
078_0384 tshwaneleha ka mora nako e
078_0385 e ne e le sebaka
078_0386 internal combustion engine
078_0388 ba puo e tla hloka
078_0395 hloka bokgoni ba ho nehelana
078_0396 western european countries
078_0397 ho sebedisa thaere e kgolwanyane
078_0398 day saint movement
078_0399 grisly
078_0401 nobel prize winners
078_0403 states district court
078_0404 petroleum exporting countries
078_0406 tsebiso ya lefapha le molaong
078_0409 monyakeng
078_0410 ramolodi
078_0411 fane ka nomoro ya akhauntu
078_0412 american nobel laureates
078_0415 ya boitsebiso kapa setifikeiti sa
078_0418 international criminal court
078_0421 ofisi ya iss ya afrika
078_0425 park
078_0430 tshenyo e kgolo dimeleng tse
078_0431 baemedi ba porofensi ho ncop
078_0432 kapa o tshwerwe tlasa mental
078_0434 management
078_0435 atlantic treaty organization
078_0436 essential fatty acids
078_0438 extension
078_0439 chinese communist party
078_0442 samuel's
078_0446 video game developers
078_0449 ho qetela la ho sebetsa
078_0450 na le tshepo ya hore
078_0451 missing living people
078_0452 king james version
078_0453 tse ding tsa dintho tseo
078_0454 mokga oo a etsang kopo
078_0455 state university alumni
078_0457 ya ho ba teng ho
078_0459 tone ka nngwe ho tsamaisa
078_0463 le katleho ya sepheo sa
078_0465 close air support
078_0470 le ngodisitsweng mona afrika borwa
078_0471 tse ka hodimo ho tse
078_0473 aterese le nomoro ya mohala
078_0477 mong le e mong ya
078_0483 ba dilemo tse ka hodimo
078_0484 motherwell
078_0487 wayne state university
078_0488 mariha e hloka nako e
078_0489 positive real numbers
078_0495 ho ngodisa setsi sa tlhahlobo
078_0498 power parity comparisons
078_0499 edwin
078_0500 dutton
078_0501 san pedro sula
078_0502 mtv video music
078_0503 late twentieth centuryodowska curie
078_0505 ya moithuti e le yona
078_0508 test ban treaty
078_0509 kamano pakeng tsa theko le
078_0511 received mixed reviews
078_0514 international financial institutions
078_0516 folaga e ntle ka ho
078_0517 merero e ntlafaditsweng ya tlhahiso
078_0519 sehlopha sa tshebetso sa moralo
078_0520 seteisheneng sa mapolesa se haufi
078_0522 di fapana ho ya ka
078_0524 civil class
078_0525 states presidential candidates
078_0530 ke e nngwe ya dintlha
078_0531 tswang dipuong tsa sehlopha sa
078_0532 los angeles county
078_0534 quantum field theory
078_0536 ka ntle eo e leng
078_0538 tlameha ho tlatswa ke mokopi
078_0539 palamente ya rephaboliki ya afrika
078_0541 ha ba hloke ho ntsha
078_0543 nka nako e telele ho
078_0546 lengolo la bopaki la phytosanitary
078_0547 pele ho ngodiso ho ya
078_0549 ho etsa qeto mabapi le
078_0554 le tlhokeho e potlakileng ya
078_0555 president woodrow wilson
078_0557 pope urban
078_0558 qhamakwane
078_0559 social democratic parties
078_0562 major political parties
078_0564 itshebetsang puong jwalo ka bafetoledi
078_0567 education
078_0569 mekgwa le melao ya ho
078_0571 president
079_0001 abdur rahman khan
079_0002 american film institute
079_0003 medieval islamic world
079_0004 ditlhapiso bakeng sa dikotsi le
079_0005 united states department
079_0006 ka ho ya ka melawana
079_0007 le ho netefatsa mmuso wa
079_0008 ke mang ya jarang boikarabelo
079_0009 clarence's
079_0010 clive
079_0011 wa mofuta wa diphoofolo kapa
079_0013 lefapha la bokgabo le botjhaba
079_0014 boemong ba naha ba mmuso
079_0015 ba eba siyo lebatoweng leo
079_0016 association football clubs
079_0017 mohope wa lefatshe wa bolo
079_0018 supreme court justice
079_0021 national park service
079_0022 leng la mmuso le provenseng
079_0024 afrika borwa ntle le ha
079_0025 power parity comparisons
079_0026 british west indies
079_0028 tsa boholo bo sebediswang phasepotong
079_0029 e fumaneha lefapheng la kgwebo
079_0035 bohlokwa ka ho fetisisa e
079_0036 ivy
079_0037 international olympic committee
079_0039 petrus
079_0040 le thibelo ya kgethollo e
079_0041 butle haholo hoo balemi ba
079_0043 north germanic languages
079_0044 countries established diplomatic
079_0045 new zealand english
079_0046 ho tsamaya le tefello ya
079_0047 mayflower
079_0048 getro
079_0049 romellwang ho tswa ka ntle
079_0050 national park service
079_0051 lebanese armed forces
079_0052 phihlelo ya dithuso tsa sapoto
079_0053 shejwa e le karolo ya
079_0054 ho a kenya tshebetsong e
079_0056 tekolo botjha ya tshebetso tsa
079_0057 a re nke hore bolelele
079_0058 gross domestic product
079_0061 harvard university people
079_0062 disampole tsa mobu di tshwanetse
079_0063 ya heno e haufinyana ya
079_0066 se ke wa qobella molemi
079_0068 eo ho fihlwang ho yona
079_0069 selemo ho ya ka mm
079_0070 wa leano o hlokometse hore
079_0071 e ngotsweng ke marius greyling
079_0072 national inventors hall
079_0073 bo ikemetseng ba ditletlebo e
079_0076 ngata di a hlokahala ho
079_0078 ho jalwa le poone bo
079_0080 langton
079_0082 etsahala hore ho be le
079_0083 tla amohelwa jwalo ka setswantle
079_0084 marble
079_0086 ho laola palo ya dimela
079_0087 o ne o sa tsebe
079_0089 o ne a na le
079_0090 republican national convention
079_0092 mokopi o na le ditjhelete
079_0093 pope urban
079_0094 presidential representative democratic
079_0096 qhalanya tjhefo ena diforong tsa
079_0097 ho fanwa ka sona ha
079_0098 belfast
079_0099 world trade center
079_0100 sebedisa lebitso le molaong le
079_0101 tlhokeho ya taolo ya dikokwanyana
079_0102 dula a le teng kaswadi ba
079_0103 royal swedish academy
079_0104 leloko ba batla paki ya
079_0105 phahameng la molao le phatlaladitse
079_0106 ho hlwaya tefo ya hao
079_0107 tokelo ya momedisi wa dimela
079_0108 o romele bopaki ba tefo
079_0109 modern standard arabic
079_0110 savannah
079_0111 san diego padres
079_0112 hopola hore re kgona ho
079_0113 ho phethisa kahlolo kapa taelo
079_0116 lokela ho fuwa tlhompho e
079_0117 hore ho teng balemi ba
079_0119 e fapaneng ya ho phethola
079_0120 itshebetsang puong jwalo ka bafetoledi
079_0121 na le boikarabelo mabapi le
079_0123 haholo tlhodisanong e neng e
079_0124 foromo ya tlaleho ya ditletlebo
079_0125 reactive oxygen species
079_0127 art deco buildings
079_0128 rugby union team
079_0130 american film producers
079_0131 brixton
079_0132 ya mehlodi le moralo wa
079_0133 vector space
079_0134 puo ya ho ithuta le
079_0135 ho fapana ho ya ka
079_0136 setifikeiti sa tlhakiso sa sepolesa
079_0137 ho fetola lefapha la ditaba
079_0140 selinah
079_0141 ho bohlokwa haholo hore o
079_0142 pope julius
079_0144 sa ho di tshireletsa ha
079_0145 cite journal author
079_0146 ho etsa ditokiso tse hlokahalang
079_0147 ho hlophiswa jwalo ka dithuto
079_0148 saint lawrence river
079_0150 iran iraq war
079_0151 rugby union team
079_0153 kapa ho toloka moo ho
079_0154 ka sehloohong ke ho boloka
079_0156 los angeles county
079_0157 hlahiswa e bongata bo bokae
079_0158 dibekeng tse pedi tse fetileng
079_0160 ho ntshetsa pele dipuo tsa
079_0162 human rights watch
079_0163 rock music groups
079_0164 american football conference
079_0166 mabapi le taolo ya mahola
079_0167 ho nehelana ka tshebeletso ya
079_0168 hore ha ba tsebe hore
079_0169 o lokela ho o tsebisa
079_0170 boemong bo hodimo bakeng la
079_0171 ho latela molao wa lekgetho
079_0172 ha monga thepa a rata
079_0173 hore setjhaba se lekole ditaba
079_0176 controlled substances acte
079_0177 duncan
079_0178 constitution of the republic of
079_0179 total land area
079_0180 ya naha le ntlo ya
079_0181 moputso wa ho qetela o
079_0183 iss ya afrika borwa e
079_0184 human genome project
079_0185 o metha peo le manyolo
079_0186 bakeng sa ho romela hlapi
079_0188 ileng tsa fuwa maemo a
079_0189 selemo sa ditjhelete se felang
079_0190 higher education institutions
079_0191 tshilafatso kapa tshenyo e sa
079_0192 ho latela dipehelo tsa molao
079_0193 eo o ileng wa e
079_0199 blacksash
079_0201 ditherisano tse kopanetsweng ke basebetsi
079_0203 tsa mmala o motsho le
079_0204 lady
079_0206 metsotso
079_0208 batho ba afrika borwa bao
079_0209 se hlahlamang sa ho jala
079_0210 computational complexity theory
079_0211 disebediswa tse fapaneng tsa ho
079_0212 kgetho ya mefuta ya peo
079_0213 football league teams
079_0214 ha sebediswa puo tse fetang
079_0215 borwa kapa badudi ba saruri
079_0217 american foreign policy
079_0218 puo ka ho hlahisa dipheo
079_0219 ho ya ho tse robedi
079_0220 ho tla etsahala eng ha
079_0221 ho adima tjhelete mabapi le
079_0223 tshebediso ya dipuo tse ngata
079_0224 ridgeway
079_0225 monga setsha seo sa bafu
079_0226 devan gar
079_0227 ho sebetsa le dinaha tse
079_0228 napier ke furu e ntle
079_0233 tse mpe le tse nyonyehang
079_0234 asian nations asean
079_0235 jwang ho matlafatsa kapa hona
079_0239 ya ho ngodisa setsi sa
079_0240 bonnete hore molemi ke karolo
079_0241 ba le tokelo ya boqapi
079_0242 mong le e mong polasing
079_0243 ho tsebisa lefapha la tsa
079_0244 education
079_0245 mekga efe e meng e
079_0246 sebakeng seo ho sona disebediswa
079_0247 final resting place
079_0248 hore baahi ba naha ya
079_0250 phethahatso
079_0251 ba le taolo hodima maemo
079_0252 lokela ho sebediswa ha ho
079_0253 haeba motsekiswa a hloleha ho
079_0254 hang ha a se a
079_0255 mokakawe
079_0256 ho hlepha ho tshwanetse ho
079_0257 boemo bo hodimo la molemi
079_0258 sebetsang mona afrika borwa di
079_0259 le balemi ba ntseng ba
079_0261 abednego
079_0263 le tlhokeho e potlakileng ya
079_0265 tsa lehae kapa embasing kapa
079_0266 ho ba molemi wa mohwebi
079_0267 united states navy
079_0268 o neng o qalwe ka
079_0269 kgwebo
079_0270 motho ya tswang naheng ya
079_0272 application programming interface
079_0273 e tshwanetse ho etswa ho
079_0275 a etsa qeto ya ho
079_0277 karabo eo o e fumanang
079_0278 fact date december
079_0279 botlhokong
079_0280 e arabelang ditlhoko tsa bona
079_0281 boahi ba bona ba naha
079_0282 provincial
079_0283 cold war era
079_0284 ka kgonang ho raroloha kantle
079_0285 ho etsa jwalo ho ka
079_0287 ba saruri ba afrika borwa
079_0288 laolla foromo ya kopo ho
079_0289 bohahlaudi kapa bolaodi bo beilweng
079_0290 le diphetoho dife kapa dife
079_0291 sherman's
079_0292 botlalo di tla kgutlisetswa ho
079_0294 melongwana e seng e kgathetse
079_0295 o ka nna wa fafatsa
079_0296 ho kenweng ho ona ka
079_0297 cambridge university press
079_0299 mang a na le dikotola
079_0300 dinepe tse pedi tsa boholo
079_0301 ho tswela pele ka ho
079_0302 elections took place
079_0303 tse pedi kapa ho feta
079_0304 le dimela mabapi le mongobo
079_0305 mme o e tlatse ka
079_0306 le ho kenya tshebetsong ditshisinyo
079_0307 ho tjheswa le ho kgutliswa
079_0308 feela le tla tsamaelana le
079_0309 e ntse e tswela pele
079_0310 lokela ho ba dilemo tse
079_0311 sir francis drake
079_0313 ho teng dintlha tse mmalwa
079_0314 verify credibility dater
079_0317 ya ho fana ka beile
079_0319 na le bopaki bo ngotsweng
079_0320 re sebetsa mmoho re tlameha
079_0321 puo tsa nguni le sesotho
079_0322 la dithuto la afrika borwa
079_0323 dikopo di ka etswa ofising
079_0325 united states relations
079_0326 digital signal processing
079_0327 ho tsamaya sebakeng seo feberu
079_0328 re batla ho tswela pele
079_0329 wa bolo ya maoto wa
079_0330 pherekgong
079_0331 camp david accords
079_0333 foreign direct investment
079_0334 regular season games
079_0335 leanong la naha la puo
079_0337 motho e mong ntle le
079_0338 major league baseball
079_0339 e nngwe ya dipuo tsa
079_0341 social democratic parties
079_0343 tumello ho tswa ho monga
079_0344 tjheke e tiiseditsweng ke banka
079_0346 french west africa
079_0347 battery park city
079_0348 e neng e tshwaretswe the
079_0349 spruit
079_0350 wa afrika borwa ntle le
079_0351 hlaha mafelong a lebitso la
079_0352 democratic
079_0353 ha ho ka etseha hore
079_0354 ke ho fihlela ho latelang
079_0355 dintlheng tse mabapi le boleng
079_0356 ke hore ho phetholwa ha
079_0357 tokelo ya ho ba le
079_0358 masimo e bontsha matshwao a
079_0359 lefu kapa kotsi e bakilweng
079_0361 sebediswa jwalo ka ha ho
079_0362 north atlantic treaty
079_0363 kgetho ya bamamedi bao ho
079_0364 diphaphosing tsa borutelo ka nako
079_0365 tsa boemedi ba naha matjhabeng
079_0366 mapolesa se haufi le moo
079_0367 hara lefapha le mafapheng a
079_0368 german air force
079_0369 lokelang ho latelwa ha ho
079_0370 la metsi a mangata hoo
079_0371 matsatsi a mahlano ho ngodisa
079_0373 tsa ho iteanya le motho
079_0374 free market economy
079_0375 ho qetela le le ka
079_0376 a ka etsa kopo ya
079_0377 nang le boahi ba naha
079_0378 le e nngwe ya tsona
079_0379 batla ho sa baballe tjhelete
079_0380 ba tikoloho e itseng kapa
079_0381 kapa e rekiswang mona afrika
079_0382 containing video clips
079_0384 e nngwe e tshwanang le
079_0385 hamburg
079_0386 merero e ntlafaditsweng ya tlhahiso
079_0387 anc
079_0388 kgahlanong le botlokotsebe le bobodu
079_0389 tsa lona ha di a
079_0390 dikarolong tsa yona tsa metso
079_0391 tse amohetsweng jwalo ka ditswantle
079_0392 frankfort
079_0393 masimong a mang le a
079_0395 sefe kapa sefe sa mokgatlo
079_0396 nehela lefapha kopi e tiiseditsweng
079_0397 nakong e sa tswa feta
079_0398 zimbabwe
079_0399 european central bank
079_0401 tlatsa foromo ya kopo ya
079_0402 dikarolong tse fapaneng tsa naha
079_0403 dipaterone tsa pula le ho
079_0405 ho bile le tshehetso e
079_0406 empa ka ha tshenyo ke
079_0407 tse hlaselang semela sa soneblomo
079_0408 province
079_0409 federal communications commission
079_0410 kutu
079_0411 camp david accords
079_0412 pakeng tsa afrika borwa le
079_0413 boramesebetsi ba lokela ho tlatsa
079_0414 ba ngodiso mokgeng kapa lekgotleng
079_0415 tshebetsong ke lefapha la ditaba
079_0416 schonkenville
079_0417 chinese civil war
079_0418 ka batho ba afrika borwa
079_0419 riverside
079_0420 wa lebatowa wa lefapha la
079_0421 cosmic microwave background
079_0422 di tshwanetse ho elwa hloko
079_0423 mathata a phepelo ya motlakase
079_0425 lekgotleng le haufi le moo
079_0426 ditokelo tsa bamedisi ba dimela
079_0427 ya koro mabapi le balemi
079_0428 greek orthodox church
079_0429 soneblomo le dinawa tsa soya
079_0430 ho hlaha letloleng la dipenshene
079_0431 johnny issel le mthuli ka
079_0432 le hlalosang hore ke ka
079_0433 hona ke hobane tsa tlhaho
079_0435 german democratic republic
079_0437 ho kopa bolaodi ba sebaka
079_0439 ya dipuo tse ngata di
079_0440 ditaba tsa lehae kapa embasing
079_0442 disampole kaofela tsa mobu o
079_0443 president
079_0444 ho amohela dipuo tse fapaneng
079_0445 moo ntate wa hae a
079_0447 le dijothollo mabapi le mongobo
079_0448 ha jwale e amanang le
079_0450 dikri diploma ya dilemo tse
079_0451 e ke ke ya feta
079_0452 nobel peace prize
079_0453 di tla lokela hore di
079_0454 qhamakwane
079_0455 tsa tsebo tse hlokahalang ho
079_0457 ya dipuo tsohle tsa semmuso
079_0458 e le ho nnetefatsa hore
079_0459 la ho qetela la ho
079_0460 afrika borwa ya nang le
079_0461 moporesidente
079_0462 tokelo ya hao ya ho
079_0468 mekgwa le melao ya ho
079_0469 kenyelletswa le ditaba tse mabapi
079_0470 ya bt di tshwanetse ho
079_0471 ha ba hloke ho ntsha
079_0473 botjha le ho sebedisa mehlodi
079_0474 declared martial law
079_0475 mekgatlo ya kontinente le ya
079_0476 tlhaho la motho e mong
079_0477 dikarolong tse ka hodimo tsa
079_0478 cell lung carcinoma
079_0480 middle east peace
079_0481 jalwa e ka sebetswa ka
079_0482 moetapele wa mosebetsi wa mmuso
079_0483 dilemo tse ka hodimo ho
079_0485 mekgwa e lokileng ya ho
079_0487 ofisiri ya merero ya sapoto
079_0488 dibeke tse pedi ho ya
079_0489 monga tokelo ya ho tshwasa
079_0490 ya ho a mararo a
079_0491 mister
079_0492 bo hlakileng ba tumello ya
079_0495 new prime minister
079_0497 grammy lifetime achievement
079_0498 graphical user interface
079_0499 failed verification date
079_0501 le hore dipuo tsa rona
079_0502 ya ho a kenya tshebetsong
079_0503 ho tsamaisa seahelo sa ho
079_0506 ya morejistara wa ditabatabelo tsa
079_0507 strong economic growth
079_0511 e ka nna ya hana
079_0512 lokela ho eketswa ka bobedi
079_0514 lekola tswelopele ya mosebetsi wa
079_0515 romela kapa ho tsamaisa tefo
079_0516 eba moo dihlooho di thetsang
079_0517 e bonahala ka popeho ya
079_0518 latelwa melao le melawana ya
079_0519 lokelwa ho romelwa dikgweding tse
079_0520 ho ya tlatsa karolo ya
079_0521 south american nations
079_0522 ya rona dilemong tse tlang
079_0523 la ntshetsopele ya molemi wa
079_0524 di etswang teng ka poso
079_0525 kapa khampani ya ba mmalwa
079_0526 boholo bo shebaneng le balemi
079_0527 ralph waldo emerson
079_0528 phethahatso ya leano e tla
079_0529 e lokela ho tsamaya le
079_0530 bakeng sa ngodiso jwalo ka
079_0531 kapa setho sa lekgotla la
079_0532 eastern roman empire
079_0533 arthur conan doyle
079_0534 jwalo ka katoloso ya bongata
079_0535 roman catholic church
079_0536 mehato ya taolo ka dikhemikhale
079_0537 ntshetsopele ya molemi ke ho
079_0540 market prices estimated
079_0541 lehae kapa embasing kapa misheneng
079_0542 ho tswa dinaheng tsa ka
079_0543 communications commission fcc
079_0544 ho teteana ha mobu le
079_0545 atomic energy agency
079_0546 tsa thuto e phahameng le
079_0547 elektroniki le kenya tjhelete ka
079_0548 ba etsa bonnete ba hore
079_0549 ho ka ba molemo ho
079_0550 o ngodiswe rejistareng ya baahi
079_0551 tse ka sebediswang ho laola
079_0552 ditaba tsena di nkilwe bukaneng
079_0553 jwalo a feletswe ke nako
079_0554 ho ya ka mofuta wa
079_0555 early modern period
079_0556 tlhahisoleseding ya mokgwa wa ho
079_0557 pokello ya lekgetho ya aforikaborwa
079_0558 getrude
079_0560 digital signal processing
079_0561 molao wa ntlafatso ya dimela
079_0562 vanity
079_0563 tlatsitsweng tse lenaneong le ka
079_0564 yunione e nang le boemedi
079_0565 tswa bukaneng ya grain sa
079_0566 red hot chili
079_0567 molao wa tshebedisano e kwetsweng
079_0568 ke letona ka kgothaletso ya
079_0569 a hlokahetse kapa a latotse
079_0570 leng le le leng le
079_0571 motho ya tjhonneng ha a
079_0572 la dipuo tsohle tsa afrika
079_0573 juvenal
079_0574 mohlahisi ya thuthuhang wa grain
079_0575 a phela nako e telele
079_0576 states environmental protection
079_0577 ya bodulo ba saruri ho
079_0578 ba motswadi wa letholwa ka
079_0579 disebediswa tse ding tsa tlatsetso
079_0580 ho dula o etsa phaello
079_0582 romela raporoto ya ho qala
079_0583 lefapha le molaong ka tsela
079_0584 diphetolelo le tlhaolo ya diphoso
079_0585 o tla romelwa seteisheneng sa
079_0586 le tlhophiso ha mmoho le
079_0587 hlahisa dithuto tse tharo tsa
079_0588 selborne
079_0589 a tsona e tla ba
079_0590 a ka nna a fetoha
079_0591 alexandra
079_0592 ya polasi mabapi le phaello
079_0593 operation desert storm
079_0594 id tsa mmala o motsho
079_0597 cape breton island
079_0598 bileng le seabo tsamaisong ya
079_0599 ba bona ba afrika borwa
079_0600 o adimanang ka tjhelete o
079_0601 ya leano la puo e
079_0602 e tshehla ha o tsamaya
079_0605 ho balemi ba ntseng ba
079_0606 reform
079_0607 mabapi le bophelo bo botle
079_0608 pele peo e hlaha mobung
079_0609 armenian apostolic church
079_0610 chubby
079_0611 hlophiswa jwalo ka dithuto tsa
079_0612 ho fanwang ka yona ke
079_0613 medieval islamic world
079_0614 mekgwa e mmedi ya sehlooho
079_0615 american short story
079_0616 vicksburg
079_0617 ka hara ntlo ya seboka
079_0618 grand theft auto
079_0619 tsa bona le basebeletsi ba
079_0620 la foromo ya hao ya
079_0622 etswa ka puo ya kgetho
079_0623 magnetic field lines
079_0625 leng dilemo tse ka tlase
079_0626 foromo e fumaneha lefapheng la
079_0627 boulevard
079_0629 motho ofe kapa ofe o
079_0630 socialist workers party
079_0634 ba moahi wa afrika borwa
079_0636 le halofo ka mora hora
079_0637 wa afrika borwa kapa modudi
079_0638 batswadi kapa mohlokomedi wa molao
079_0639 setjhaba tshebetsong ya ntshetsopele ya
079_0640 junction
079_0642 a hlahisa a mang selemo
079_0643 mongodisi wa ditokelo tsa bamedisi
079_0644 current account deficit
079_0645 ikgethang tsa selemo le selemo
079_0646 tsa ho kgonahatsa puo tse
079_0647 tshebeletso ya kgaso ya motse
079_0648 ho latela ditataiso tse leng
079_0650 setjhaba sa rona le melao
079_0651 hlahisa ditone tsa dimilione tse
079_0652 dipuo tsohle tsa semmuso di
079_0653 sacramento
079_0654 wa ho etsa dintho ka
079_0655 mmuso o tla tswela pele
079_0656 ho isa ho tse robedi
079_0657 tokomane efe kapa efe e
079_0658 common law jurisdictions
079_0660 dipuo tseo e seng tsa
079_0661 distinguished service medal
079_0662 ka mokgwa wa elektroniki kapa
079_0663 a ditsebiso tse matsohong a
079_0664 lekgotla la dinyewe le tla
079_0665 mofuta ofe kapa ofe wa
079_0668 e hlalosang maemo ao baahi
079_0669 ya lekgetho la kuno e
079_0670 jwalo ka karolo ya tshebetso
079_0671 setshelo sa witblits se neng
079_0672 mehlodi e meng ya tjhelete
079_0673 a qetella a le lefatsheng
079_0674 barkly
079_0676 tshwasa ka palo e nyenyane
079_0679 ka ho fetisisa taolong ya
079_0680 san diego chargers
079_0681 sir isaac newton
079_0682 lefang tonobankeng ho sebaka kapa
079_0685 etsa karolo e kgolo ya
079_0686 mme ho kenwe ho lona
079_0687 motho ya tswang ka ntle
079_0688 ba ramosebetsi wa hao ho
079_0689 europe music awards
079_0690 java virtual machine
079_0691 georgetown
079_0692 fundamental physics concepts
079_0693 sa kgolabolokwe e maqaphaqapha ya
079_0695 health
079_0696 ralph waldo emerson
079_0699 ho lebaka la hore hobaneng
079_0700 ngwana a tswetswe ka ntle
079_0701 league baseball teams
079_0702 ha ditho tse hlomphehang di
079_0703 tlameha ho latela dipehelo tse
079_0705 karolo ya tshebetso ya ho
079_0707 ya phaello le mojaro wa
079_0708 letona la ntshetsopele ya setjhaba
079_0709 behilweng bakeng sa tshebeletso ena
079_0710 golden gate bridge
079_0711 ka ho fetisisa e leng
079_0712 free software movement
079_0713 birth missing living
079_0714 e ka nna ya boela
079_0715 thuto ya tlhokomelo ya terekere
079_0716 pongola
079_0717 tsa tikoloho le bohahlaudi kapa
079_0718 palohare ya phofudi ya selemo
079_0719 guru granth sahib
079_0720 ya taolo ka dikhemikhale e
079_0721 mathata afe kapa afe a
079_0722 la ntshetsopele la grain sa
079_0723 president abraham lincoln
079_0724 ruuwa le ho laolwa ka
079_0725 borasaense ba tlhaho ho hlokwa
079_0726 pedi tsa id tsa mmala
079_0727 na le ditho tsa palamente
079_0733 la ditshebeletso le sesiu sa
079_0734 interim prime minister
079_0735 puso ya selehae le phano
079_0738 ba ntseng ba thuthuha ba
079_0739 ba bangata ba ntseng ba
079_0740 ho fumana tjhelete ya sapoto
079_0741 second continental congress
079_0742 mdda
079_0743 monyetla wa ho ba le
079_0744 ditlhoko le diphephetso tsa batho
079_0745 castel sant angelo
079_0747 states coast guard
079_0748 national
079_0749 morojele
079_0751 feberu e tshehla e tletseng
079_0752 green coffee beans
080_0001 le o mong o na
080_0002 sehlopheng sa rona sa tshebetso
080_0004 congressional gold medal
080_0005 fifa world cup
080_0006 le hore re tle re
080_0009 numeric character references
080_0010 sepolesa sa aforikaborwa e lefe
080_0011 buddhism
080_0012 united states
080_0014 le ho tempuwa ke mosebeletsi
080_0016 ho etsa hore naha ya
080_0017 butlebutle ka mokgwa o ke
080_0019 moo motho a fumanang kuno
080_0020 argentina ho ya afrika borwa
080_0022 cathode ray tube
080_0023 diprojeke tsa bohlokwa tsa lenaneo
080_0024 boholo ba masimo a hao
080_0026 setefikeiti sa boingodiso ba koloi
080_0029 united states president
080_0031 hlahisa dijothollo di phahame haholo
080_0034 re tsebang ho sebetsa re
080_0035 blood
080_0036 potter's
080_0038 ba ngodise ho south african
080_0039 ile ba hapa moputso wa
080_0040 ha re sebetsa mmoho re
080_0045 karolong e ka tlase ya
080_0046 kgopolo ya hore dihlahiswa tse
080_0047 van der waals
080_0048 television shows set
080_0049 modern orthodox judaism
080_0054 average family size
080_0058 tlasa merero e hlwauweng mona
080_0059 ho tla etswa ho latela
080_0062 kgatello ya tshebediso ya mefuta
080_0063 ngotsweng ya ho ngodisa ofising
080_0064 strategic air command
080_0065 ha metsi pakeng tsa dikarolwana
080_0066 bad
080_0067 tshebedisano e kwetsweng e lefa
080_0068 tswa ho monga setsha seo
080_0069 tlhokomelo mabapi le tshebediso e
080_0070 mabapi le tlhahiso ya koro
080_0071 red blood cells
080_0074 ho na le mefuta e
080_0075 e ne e se e
080_0077 monroe
080_0079 tjhelete ya hae e kenang
080_0080 hore mobu o na le
080_0082 basebeletsi ba hao le dijothollo
080_0083 best foreign language
080_0084 tla romelwa seteisheneng sa mapolesa
080_0085 national science foundation
080_0086 kgahlanong le dikgoka ho basadi
080_0087 e nngwe ya tsona e
080_0088 wa etsa tshebetso tsa kgwebisano
080_0089 junior high school
080_0090 october
080_0092 united states census
080_0093 aterese ya moo o dulang
080_0094 league baseball team
080_0095 federal trade commission
080_0098 seboka sa naha le lekgotla
080_0099 la boemo bo hodimo la
080_0102 kgone ho tswela pele ka
080_0103 formal diplomatic relations
080_0104 midrand
080_0105 tse ding le tse ding
080_0106 system
080_0109 ba lefapha la ditaba tsa
080_0110 tshebetso e etsang hore ho
080_0111 north west company
080_0112 saint john river
080_0115 tlasa bolaodi ba mmuso wa
080_0119 nfc championship game
080_0120 tsa taolo ka dikhemikhale le
080_0121 moahong wa lekgotla la naha
080_0123 tailor
080_0124 ya pele e neng e
080_0131 madison square garden
080_0133 e tswang ho registrar of
080_0134 holy hand grenade
080_0135 taolo ka dikhemikhale le mefuta
080_0136 valhalla
080_0138 southwestern united states
080_0139 ba ka hodimo ho dilemo
080_0141 bakeng sa nako e kgutshwane
080_0142 tadimilwe thibelo ya tlhodisano le
080_0144 tsena tsohle di ile tsa
080_0145 law enforcement agencies
080_0146 ditho tsa palamente ha di
080_0147 nakwana ke ho thusa balefi
080_0148 lenane la batho ba e
080_0149 sebedisa tlhahisoleseding e kentsweng ke
080_0150 recreation
080_0152 ho se ho kenwe ho
080_0153 best supporting actor
080_0154 empire
080_0155 ba bangata ba nang le
080_0161 grammatical
080_0162 ha eba kere e potolohisang
080_0164 bragg
080_0165 hore menyenyetsi e mabapi le
080_0168 big bang model
080_0170 foreign direct investment
080_0171 tse phahameng tsa taolo ka
080_0173 motho a tshwerweng ho yona
080_0177 diminerale kapa mahakwe a bohlokwa
080_0179 eo re neng re e
080_0180 madison square garden
080_0181 mahareng a phato ho fihlela
080_0183 lekgotleng la dinyewe ho tla
080_0184 man
080_0185 early church fathers
080_0186 mme re tshepa hore moya
080_0187 mamelodi
080_0188 sebetsa jwalo ka borasaense ba
080_0189 good
080_0190 motor vehicle manufacturers
080_0191 ya kopo ofising e haufi
080_0192 e fuwa baahi ba naha
080_0193 hall
080_0194 tse ka hodimo tsa mobu
080_0195 san francisco giants
080_0200 tshebeletso ya poso e sa
080_0201 fact date august
080_0202 fact date march
080_0203 ile wa rekisetswa lefapha la
080_0205 sam
080_0206 red blood cells
080_0207 tlhahiso e tswetseng pele ya
080_0209 hore ho na le tshebetso
080_0212 hore ditokomane tsa mmuso ha
080_0214 bridgeport
080_0215 ya etsang kopo ya tokomane
080_0220 ka morero wa ho matlafatsa
080_0221 tlhahiso ya poone le mmaraka
080_0222 tshebetso ya botsebi ba saense
080_0223 ho suthisa ka ho ya
080_0224 nako e telele ho tiisitse
080_0225 poone le dinawa tsa soya
080_0229 jwalo ka ha ho hlokeha
080_0230 moo ho ipehilweng ka tsela
080_0231 ka dikopi tse tiiseleditsweng tsa
080_0233 maemo ana a mabe a
080_0235 proffesor
080_0236 rala mme o romele ditokomene
080_0238 centrally planned economy
080_0239 sireletsa le ho matlafatsa botsebi
080_0241 ho tholwa ha ngwana ka
080_0242 tsebisa ka ho o ngolla
080_0243 durban
080_0245 ka nngwe e na le
080_0246 bill
080_0247 harry
080_0248 le dipehelo tse ding tse
080_0249 leqephe la pele la foromo
080_0251 makgoweng
080_0252 e kenella tlase mobung le
080_0253 motho ka mong o tlamehile
080_0254 ka tsela e ke keng
080_0255 ha fela ho sa ntse
080_0256 khampani ya ba mmalwa e
080_0257 senyesemane
080_0258 boqwabi
080_0259 pheta tshebetso ena makgetlo a
080_0261 le eneji le la dikgwebo
080_0262 ya rona ya puo le
080_0263 ya saense ya lekgotleng la
080_0265 ya mobu bakeng sa ntshetsopele
080_0267 tsa larvae hammoho le mahe
080_0268 kgothalletsa ka matla tshebediso ya
080_0270 ya taelo ya tshireletso ya
080_0272 naha ya afrika borwa ba
080_0273 disebediswa tse seng di ile
080_0274 le ho romela ditokomane ho
080_0276 eighty years war
080_0277 convention
080_0278 senqu
080_0279 se fetileng sa hlabula e
080_0281 e tlang tse mabapi le
080_0283 golden globe film
080_0286 international atomic energy
080_0287 primitive recursive functions
080_0288 articles including recorded
080_0289 russian civil war
080_0290 saense ya tlhaho dikri diploma
080_0291 hore ba kgone ho ba
080_0292 pholisi ya naha ya batjha
080_0293 ding le tse ding tse
080_0295 common law jurisdictions
080_0296 moaho wa lekgotla la naha
080_0297 ya ho lebela ya bopolesa
080_0298 golden globe winners
080_0299 chancellorsville
080_0301 magnetic resonance imaging
080_0302 motho e mong ya nang
080_0304 ditaba tsena di nkilwe thutong
080_0305 human development index
080_0306 mme hona ho tla ya
080_0307 e mabapi le maemo a
080_0308 laesense ya boditjhaba ya ho
080_0309 fuwa ditokelo tsa bona tsa
080_0310 etsa hore balemi ba kgone
080_0311 tlwaelo e ke ke ya
080_0312 randfontein
080_0314 ya ho ba teng ha
080_0315 moahi wa naha ya afrika
080_0318 motho ofe kapa ofe a
080_0320 united states army
080_0321 original game boy
080_0322 mabapi le ho sebedisa poone
080_0325 ho lefa molato wa hao
080_0328 sa witblits se neng se
080_0329 a diphoofolo tsa afrika borwa
080_0330 borwa e se nang morabe
080_0331 american film producers
080_0333 ofisi ya lefapha le haufi
080_0334 nelson mandela le thabo mbeki
080_0335 maano a tsona ho latela
080_0337 baheno
080_0339 north germanic languages
080_0342 ka baka hore a lefiswe
080_0344 a na le dijo tse
080_0345 tse felletseng tsa moo ho
080_0346 bay
080_0347 seahelo sa ho lokisa tlhapi
080_0348 baahi ba afrika borwa kapa
080_0349 bafta winners people
080_0350 phemiti ya ho rafa kapa
080_0351 nuclear test ban
080_0352 ya ho tswela pele ha
080_0353 electron transport chain
080_0354 dutch east india
080_0357 lekgotla la ho ntshuwa ha
080_0358 ho ntsha raporoto ya radiology
080_0359 seo o hopotseng ho se
080_0360 ka hara naha le tla
080_0361 terekere le disebediswa tsa polasing
080_0362 be bonolo ho palama baesekele
080_0368 european economic area
080_0369 ya ngaka ya diphoofolo ya
080_0370 recent common ancestor
080_0371 ho ntse ho na le
080_0372 feteng dikgwedi tse tharo kapa
080_0374 hospital
080_0375 tlhaho temeng ya saense ya
080_0377 mesebetsi e itseng ka ho
080_0379 ho sireletsa le ho matlafatsa
080_0380 la dibokonyana tsena tse salang
080_0386 e nang le share capital
080_0388 lefapheng la kgwebo le indasteri
080_0389 ya tshwereng thaetlele kapa monga
080_0392 internet protocol suite
080_0393 environmental protection agency
080_0394 e sebetswa letsatsing leo e
080_0397 american psychiatric association
080_0398 moscow state university
080_0401 miller's
080_0403 screen actors guild
080_0405 di tswela pele ho sa
080_0408 roman catholic priests
080_0409 ho behela taelo ka thoko
080_0410 president george
080_0413 ha ho kgethwa dipuo tseo
080_0414 lokelang ho fetolelwa bafetoleding ba
080_0415 re kopa hore o ele
080_0416 afrika borwa ha kopo e
080_0417 mabitso a bonkgetheng bakeng sa
080_0419 le reng limited le tla
080_0422 ya phemiti ya bodulo ba
080_0423 national hockey league
080_0424 naha ya afrika borwa kapa
080_0425 tsela e tla ba le
080_0428 setifikeiti sa tswalo sa afrika
080_0429 central
080_0431 tla tshwarwa ka mokgwa o
080_0432 united states senate
080_0437 haholo ke moruo wa tsona
080_0438 ozone layer protection
080_0439 new york jets
080_0440 feta pele hore ho na
080_0441 o na le diterekere le
080_0442 palestine liberation organization
080_0445 bakileng kgatello ya tshebediso ya
080_0448 ka ho lekola tswelopele ya
080_0449 ya thuso bakeng sa ho
080_0450 gibbon
080_0451 tsa lekgetho di ka phethahatswa
080_0452 tlhahiso ya poone tlasa nosetso
080_0453 high seas fleet
080_0456 o tshwanetse ho ba le
080_0457 strong nuclear force
080_0458 september
080_0459 hlodisana le dijothollo mabapi le
080_0460 la provinse kapa la naha
080_0462 batlang ho etsa kopo ya
080_0465 phepelo ya dijo tsa polasing
080_0466 united states geological
080_0467 july
080_0468 kopo ya laesense ya sekepe
080_0469 dipeo le dipeo tse hlahang
080_0470 tlhokeho ya mosebetsi wa ho
080_0472 phethahatso ya leano lena e
080_0473 manejara wa lebatowa a ananela
080_0474 ha eba o hloleha ho
080_0475 complaints
080_0478 mabapi le mefuta e metle
080_0480 award winning authors
080_0481 power parity comparisons
080_0482 ya tumello ya ho romela
080_0483 bilateral immunity agreement
080_0485 mokgatlo o emetseng basebeletsi tumellanong
080_0486 court ha e le traste
080_0487 o neng o rena ditherisanong
080_0488 military coup
080_0489 o motsho le o mosweu
080_0492 balemi ba batjha ba ka
080_0494 music awards winners
080_0498 ena ke e nngwe ya
080_0500 re tla dula re ntse
080_0501 ntle mofuta wa hlapi o
080_0502 la ho qala la nakwana
080_0504 dikgatiso tsa tshebediso ya dipuo
080_0507 dubious date april
080_0509 mora ho ba kopo ya
080_0510 dikgopo tsa mahlaku hloohong ya
080_0512 kgothalletswa ho ithuta dipuo tse
080_0514 american political writers
080_0515 tse ka hodimo ho tse
080_0516 ikopanye le ofisi ya lefapha
080_0517 foromo ya kopo ka dikopi
080_0518 ho ngodisa jwalo ka setsebi
081_0001 dipuo tsa afrika borwa tsa
081_0002 e nang le share capital
081_0003 tsena tsohle di ile tsa
081_0005 ho se ho kenwe ho
081_0007 be bonolo ho palama baesekele
081_0008 central
081_0009 etsa kopo ya ho ngodisa
081_0010 bakeng sa morwalo o mong
081_0011 seahelo sa ho lokisa tlhapi
081_0012 united states army
081_0014 hore menyenyetsi e mabapi le
081_0015 lefapheng la kgwebo le indasteri
081_0016 metsimaholo
081_0017 o na le diterekere le
081_0018 sepolesa sa aforikaborwa e lefe
081_0019 o ile a fana ka
081_0020 ho tshwasa ka palo e
081_0021 new york yankees
081_0022 protea
081_0023 e nngwe ya tsona e
081_0024 valhalla
081_0025 keketseho thekong ya matjhaba e
081_0027 national hockey league
081_0029 tse ka hodimo tsa mobu
081_0030 ho kenngwa tshebetsong ha melao
081_0031 san francisco giants
081_0033 ya tumello ya ho romela
081_0034 ya phemiti ya bodulo ba
081_0036 le hore re tle re
081_0037 united states senate
081_0038 ya ho jala dijothollo tse
081_0039 ho sireletsa le ho matlafatsa
081_0041 tlhokeho ya mosebetsi wa ho
081_0043 states environmental protection
081_0044 complaints
081_0045 mamelodi
081_0046 lebelo la ho potoloha ha
081_0047 television shows set
081_0048 disebediswa tse seng di ile
081_0050 etsa hore balemi ba kgone
081_0051 karolong e ka tlase ya
081_0052 american jewish people
081_0053 screen actors guild
081_0054 e nang le share capital
081_0057 e sebetswa letsatsing leo e
081_0059 southwestern united states
081_0060 sam
081_0061 sa leano la ditekanyetso tsa
081_0062 north germanic languages
081_0064 eo re neng re e
081_0065 kgone ho tswela pele ka
081_0066 ho ba teng ha lenaneo
081_0068 madison square garden
081_0069 ho se na motho ya
081_0071 fiction television series
081_0073 pakeng tsa dikarolwana tsa mobu
081_0074 empire
081_0075 ya mobu bakeng sa ntshetsopele
081_0076 american male singers
081_0077 etsa boipiletso ho letona la
081_0078 wa lekgotla la naha la
081_0079 indastering e batsi ya temo
081_0080 national football team
081_0082 nelson mandela le thabo mbeki
081_0083 law enforcement agencies
081_0084 tlhahiso ya dijothollo mobung o
081_0085 hore ho na le tshebetso
081_0088 van der waals
081_0089 re tsebang ho sebetsa re
081_0090 human development index
081_0091 ditaba tsena di nkilwe thutong
081_0093 rona bo tataiswe haholo ke
081_0094 bragg
081_0095 phepelo ya dijo tsa polasing
081_0097 man
081_0099 kamohelo ya ho sebetsa jwalo
081_0101 fact date august
081_0102 poids et mesures
081_0104 kgatello ya tshebediso ya mefuta
081_0105 la ditaba tsa tikoloho le
081_0106 ha re sebetsa mmoho re
081_0107 tlhahiso ya poone le soneblomo
081_0108 baahi ba afrika borwa kapa
081_0109 october
081_0110 nna ya haella ka ha
081_0112 be bonolo ho palama baesekele
081_0113 roman catholic priests
081_0114 strong nuclear force
081_0117 ho tla etswa ho latela
081_0118 ho na le mefuta e
081_0120 diminerale kapa mahakwe a bohlokwa
081_0123 tshebetso e etsang hore ho
081_0124 tlhokomelo mabapi le tshebediso e
081_0127 ka ho lekola tswelopele ya
081_0129 sa witblits se neng se
081_0130 fifa world cup
081_0131 ha eba o hloleha ho
081_0133 tswela pele ho sebetsa le
081_0136 united states president
081_0137 centrally planned economy
081_0138 balemi ba batjha ba ka
081_0139 church turing thesis
081_0140 di be tharo mme o
081_0141 convention
081_0143 lekgotleng la dinyewe ho tla
081_0145 kopo ya laesense ya sekepe
081_0147 mmalwa le traste ditho tsohle
081_0148 e mabapi le maemo a
081_0149 american psychiatric association
081_0150 mang ya ikemiseditseng ho nehelana
081_0151 ya tshwereng thaetlele kapa monga
081_0153 durban
081_0154 motor vehicle manufacturers
081_0155 nakwana ke ho thusa balefi
081_0156 september
081_0165 madison square garden
081_0166 dineo
081_0168 ya ho tswela pele ha
081_0169 e ntshitsweng ke bolaodi bo
081_0171 recent common ancestor
081_0172 recreation
081_0174 randfontein
081_0175 proffesor
081_0176 tshebetso ya botsebi ba saense
081_0177 ya ngaka ya diphoofolo ya
081_0178 nuclear test ban
081_0179 dingane
081_0180 seo a lokelang ho se
081_0181 ho behela taelo ka thoko
081_0182 setsi se haufi sa mesebetsi
081_0184 aterese ya moo o dulang
081_0185 numeric character references
081_0187 magnetic resonance imaging
081_0192 russian civil war
081_0193 ho tloha sebopehong sa kgale
081_0194 sa sepolesa sa afrika borwa
081_0197 tsitsitseng mmusong maemong le ha
081_0199 president george
081_0201 big bang model
081_0202 fact date march
081_0203 randburg
081_0204 mahareng a phato ho fihlela
081_0206 senyesemane
081_0208 award winning authors
081_0210 le kgonahalo ya hore batho
081_0211 setifikeiti sa tswalo sa afrika
081_0215 o ne a atisa ho
081_0218 congressional gold medal
081_0221 ofisi ya lefapha le haufi
081_0223 argentina ho ya afrika borwa
081_0227 kontane kapa ka tjheke e
081_0228 la boemo bo hodimo la
081_0229 nakong eo masimo a tlohetsweng
081_0232 ba ka hodimo ho dilemo
081_0233 junior high school
081_0235 ha fela ho sa ntse
081_0236 hore mobu o na le
081_0237 golden globe film
081_0238 ke ema ka pela lona
081_0239 following world war
081_0241 ya ho ba teng ha
081_0242 july
081_0243 system
081_0244 ozone layer protection
081_0245 great lakes region
081_0246 royal albert hall
081_0248 supreme court ruled
081_0249 fuwa ditokelo tsa bona tsa
081_0252 ya rona ya puo le
081_0254 bilateral immunity agreement
081_0256 o neng o rena ditherisanong
081_0257 e tswang ho registrar of
081_0258 mabapi le mefuta e metle
081_0259 le reng limited le tla
081_0263 ya pele e neng e
081_0264 motho ka mong o tlamehile
081_0265 gibbon
081_0268 ka mora kotulo ya koro
081_0270 ka morero wa ho matlafatsa
081_0271 basebeletsi ba hao le dijothollo
081_0272 tse ding le tse ding
081_0274 ha eba poone e sa
081_0277 moahong wa lekgotla la naha
081_0278 central
081_0281 holy hand grenade
081_0282 miller's
081_0283 la ditaba tsa lehae hore
081_0285 lekala
081_0286 setefikeiti sa boingodiso ba koloi
081_0287 moo ho ipehilweng ka tsela
081_0289 united states
081_0291 phethahatso ya leano lena e
081_0294 ntswaki
081_0295 high seas fleet
081_0296 la afrika borwa la basebetsi
081_0297 tsa lekgetho di ka phethahatswa
081_0298 mokgwa wa elektroniki kapa khaontareng
081_0299 bao e leng ditho tsa
081_0300 midrand
081_0301 ho tholwa ha ngwana ka
081_0302 leqephe la pele la foromo
081_0303 e na le boikarabelo ba
081_0305 tlhahiso ya poone le mmaraka
081_0307 afrika borwa ba leng mose
081_0309 tse phahameng tsa taolo ka
081_0310 bad
081_0312 buddhism
081_0313 north west company
081_0314 modern orthodox judaism
081_0315 a diphoofolo tsa afrika borwa
081_0316 bill
081_0317 hodimo ho moo ba tla
081_0318 e le hore ba tle
081_0319 terekere le disebediswa tsa polasing
081_0320 ya hae ntle ho lebaka
081_0321 chancellorsville
081_0323 e ya ho lefapha la
081_0325 kenngwa ha jine ya bt
081_0328 naha ya afrika borwa kapa
081_0331 motho a tshwerweng ho yona
081_0334 united states geological
081_0337 mabapi le ho sebedisa poone
081_0339 moaho wa lekgotla la naha
081_0343 ba lakatsang ho sebetsa jwalo
081_0346 ka bonyane dipuo tse tsheletseng
081_0347 sehlopheng sa rona sa tshebetso
081_0348 ho tshwarella nako e telele
081_0350 common law jurisdictions
081_0351 primitive recursive functions
081_0354 nako e telele ho tiisitse
081_0355 tsa ka hara naha le
081_0356 ho ntse ho na le
081_0357 ka nepo le ho boloka
081_0359 potter's
081_0360 seo o hopotseng ho se
081_0362 tswela pele ka mokgwa wa
081_0364 borwa e se nang morabe
081_0365 united states army
081_0368 supreme allied commander
081_0369 maano a tsona ho latela
081_0370 tsosoloso ya boemo ba theshiari
081_0371 ba ngodise ho south african
081_0374 strategic air command
081_0376 hospital
081_0378 environmental protection agency
081_0379 motho e mong ya nang
081_0382 e fuwa baahi ba naha
081_0383 formal diplomatic relations
081_0385 tsena tsohle di ile tsa
081_0386 motho ofe kapa ofe a
081_0387 free methodist church
081_0390 haholo ke moruo wa tsona
081_0391 rala mme o romele ditokomene
081_0393 saint john river
081_0395 le hore se sebetsa jwang
081_0396 kopo ya setefikeiti sa ho
081_0397 mabapi le sehla se tlang
081_0398 blood
081_0399 golden globe winners
081_0400 tsa tokisetso tsa lekgetho di
081_0401 united states census
081_0402 l cuin abbr
081_0405 o lokela ho ba motho
081_0408 kgopolo ya hore dihlahiswa tse
081_0411 jwalo ka ha ho hlokeha
081_0412 bridgeport
081_0415 ba teng ha lenaneo la
081_0416 dutch east india
081_0419 akhaonteng e latelang ya banka
081_0421 mesebetsi e itseng ka ho
081_0422 citation needed april
081_0426 good
081_0427 red blood cells
081_0428 power parity comparisons
081_0429 french west africa
081_0430 red blood cells
081_0431 best foreign language
081_0434 tlwaelo e ke ke ya
081_0436 mesebetsi efe ya ho mmaraka
081_0439 ka baka hore a lefiswe
081_0443 le eneji le la dikgwebo
081_0444 seboka sa naha le lekgotla
081_0445 ka tsela e ke keng
081_0446 ba ka tlasa dilemo tse
081_0447 boholo ba masimo a hao
081_0451 le ho tempuwa ke mosebeletsi
081_0452 ho hlokeha lengolo la tumello
081_0453 tshebedisano e kwetsweng e lefa
081_0456 ntshetsopele ya dipeo tsa oli
081_0461 hore ba kgone ho ba
081_0462 tsa larvae hammoho le mahe
081_0463 new york jets
081_0464 tumello e ngotsweng fatshe e
081_0465 sebetsa jwalo ka borasaense ba
081_0466 articles including recorded
081_0467 ho etsa kopo ya taelo
081_0469 mme re tshepa hore moya
081_0470 tailor
081_0472 senqu
081_0473 cathode ray tube
081_0475 federal trade commission
081_0479 maseru
081_0480 american film producers
081_0481 hore ditokomane tsa mmuso ha
081_0482 ho lefa molato wa hao
081_0486 le dipehelo tse ding tse
081_0487 mabitso a bonkgetheng bakeng sa
081_0488 re kopa hore o ele
081_0489 mang ya ka etsang kopo
081_0491 di na le nako e
081_0495 ka mokgwa o sa tlwaelehang
081_0496 tjhelete ya hae e kenang
081_0497 bay
081_0498 bafta winners people
081_0499 tadimilwe thibelo ya tlhodisano le
081_0501 di tswela pele ho sa
081_0502 maemo ana a mabe a
081_0503 nfc championship game
081_0504 ya etsang kopo ya tokomane
081_0506 ha e kenyeletse hlapi ya
081_0507 mabapi le tlhahiso ya koro
081_0508 makgoweng
081_0509 tse felletseng tsa moo ho
081_0512 dubious date april
081_0514 basebeletsi ba lefapha la ditaba
081_0516 setsheng sa bafu sa poraefete
081_0518 motherwell
081_0519 phahameng ya poone le mmaraka
081_0520 tsa palamente di tlameha ho
081_0522 o be o na le
081_0523 a kopane le nako eo
081_0525 ho fafatsa kgahlanong le mahola
081_0526 ho ntlafatsa boleng ba bophelo
081_0527 european union member
081_0528 mananeo a mmuso a ho
081_0529 republican party united
081_0530 state university alumni
081_0531 ke sesebediswa se sebetsang ka
081_0534 itseng ntle le ho ama
081_0535 tse lokelang ho ba ka
081_0536 di ka romelwa ofising efe
081_0538 ho kenyelletswa le ditaba tse
081_0539 hang ha ho se ho
081_0541 ho tshela oli e ntjha
081_0544 new york jets
081_0545 union member states
081_0546 tsebiso ya lefapha le molaong
081_0547 sexually transmitted diseases
081_0548 melbourne football club
081_0549 german air force
081_0550 sebediswang wa ho phethola mobu
081_0551 lokela ho phatlalatsa ditokomane hanghang
081_0552 ho ya ka palohare ya
081_0553 kgothalletswa ho ithuta dipuo tse
081_0554 boyce
081_0556 tshenyo e kgolo dimeleng tse
081_0557 billy
081_0558 la nakwana le lokelwang ho
081_0560 new testament canon
081_0561 e ya weposaeteng ya lefapha
081_0563 tlameha ho balwa ka botebo
081_0564 boston red sox
081_0565 le tsela e telele eo
081_0568 ntlafatsa polokeho le tshireletso ya
081_0569 bakeng la tsebo ya mosebetsi
081_0570 nka matsatsi a fihlang ho
081_0571 west
081_0572 nakong ya dikgwedi tsa hlabula
081_0573 united nations high
081_0575 dilemong tse ngata tse fetileng
081_0576 mokga oo a etsang kopo
081_0578 nobel prize winners
081_0580 ha ho ne ho ena
081_0582 ya ditaba tsa lehae kapa
081_0583 le ngodisitsweng mona afrika borwa
081_0584 park
081_0585 latela dipehelo tsa molao wa
081_0587 theko ya sehlahiswa le bongata
081_0589 dikgatiso tsa tshebediso ya dipuo
081_0590 tla neha ba leloko sebaka
081_0591 ya tlhahisoleseding tshebetsong ya toka
081_0592 aterese le nomoro ya mohala
081_0593 tse ka hodimo ho tse
081_0594 aung san suu
081_0595 ho ya ka palo ya
081_0596 islamic conference oic
081_0598 hloleha ho etsa jwalo ho
081_0599 cognitive behavioral therapy
081_0600 ha eba poone e iswa
081_0603 tla ba le seabo se
081_0605 game boy advance
081_0606 samuel's
081_0607 o tshwanetse ho ela hloko
081_0610 mahola ke sera sa pele
081_0611 close air support
081_0612 mane ho isa ho a
081_0613 president harry
081_0614 tsa lehae provinseng eo o
081_0615 balemi ba ntseng ba thuthuha
081_0616 theko ya oli e tala
081_0617 e poraefete ya ho fihlella
081_0618 re tla dula re ntse
081_0619 borwa di tlameha ho ngodiswa
081_0620 states district court
081_0621 ho isa ho tse nne
081_0623 khopi e netefaditsweng ya bukana
081_0625 tswa dinaheng tsa ka ntle
081_0626 ho kganna ya borutehi bo
081_0627 ho bohlokwa ka ho fetisisa
081_0630 weposaeteng ya lefapha la temo
081_0631 thibelang lefu ka mora ketsahalo
081_0633 e bile wa bohlokwa ho
081_0634 tshebediso e phahameng ya sesebediswa
081_0636 eo ho dumellanweng ka yona
081_0637 wa seboka sa naha le
081_0638 temeng ya saense ya lekgotleng
081_0641 ho sebedisa thaere e kgolwanyane
081_0642 rephaboliki
081_0643 ho beha leihlo tshebediso ya
081_0644 seo o lokelang ho se
081_0646 lekala la thuto le thupelo
081_0651 king james version
081_0652 dife kapa dife tse amanang
081_0653 ferry
081_0654 a dintwa tsa ka malapeng
081_0655 romela ka mora nako ditlaleho
081_0656 mora ho ba kopo ya
081_0657 le teng ka nako tsohle
081_0658 merafong le temong bakeng sa
081_0661 ho feta ka moo ho
081_0662 ena ke e nngwe ya
081_0664 old east norse
081_0665 united states began
081_0667 kopanelo ya boitshwaro bo botle
081_0668 knights grand cross
081_0669 mme ho tla ya ka
081_0670 catherine
081_0671 motheo
081_0673 tlameha ho felehetsa kopo ka
081_0674 tse haufi tsa ntshetsopele ya
081_0676 petroleum exporting countries
081_0677 international astronomical union
081_0681 tshwaneleha ka mora nako e
081_0683 ba hore khopi ya foromo
081_0684 moo e leng hore ho
081_0685 south sandwich islands
081_0686 sa moralo wa puo ho
081_0687 e ne e le sebaka
081_0689 war political
081_0692 nang le tokelo ya ho
081_0694 british foreign secretary
081_0696 larry
081_0697 poone ya selelekela mabapi le
081_0700 latelang di tla kotjwa bakeng
081_0701 ya tse romellwang ka ntle
081_0703 o tshwanetse ho tseba hore
081_0704 extension
081_0705 foromo ya kopo ka dikopi
081_0706 o lokela ho etsa kopo
081_0708 valence bond theory
081_0709 europe music
081_0710 kapa o tshwerwe tlasa mental
081_0714 diporofensi di a nahanwa boemong
081_0715 inshorense ya tse sebediswang mobung
081_0716 efe kapa efe eo e
081_0718 old garden roses
081_0720 kapa ho hloka bokgoni ba
081_0721 south
081_0722 nebula award winning
081_0723 le kgahleho bophelong ba motletlebi
081_0726 wa diphoofolo kapa bolaodi bo
081_0727 rapid economic growth
081_0729 dintlha tsena ka boraro ba
081_0730 ya bt papisong le mekgwa
081_0731 bang ba tlosa pompo pele
081_0732 northern
081_0734 lefuweng bakeng sa tokelo ya
081_0735 make extensive use
081_0736 united states government
081_0738 ho thehwa ha diyuniti tsa
081_0741 northern mariana islands
081_0742 frank lloyd wright
081_0744 austrian school economists
081_0746 united states district
081_0747 ya nka bolelele ba dibeke
081_0748 high middle ages
081_0749 ya south african revenue service
081_0752 islamic conference oic
081_0753 sa silafatsa phepelo ya metsi
081_0754 american free trade
081_0756 sena se ka qetella ka
081_0757 dikgeong tsa mesebetsi ya sehlopha
081_0758 wa provinse ya bophelo bo
081_0759 mabapi le maemo a setjhaba
081_0760 bethal
081_0763 e tiiseditsweng ha ditokomane di
081_0770 ka puo ya kgetho ya
081_0771 leng hore ha ho hlokehe
081_0772 tlhekelo
081_0773 tswela pele ka lenaneo la
081_0774 ice hockey team
081_0776 sena se tla ba le
081_0777 ho tswela pele ho ya
081_0778 pele ho ka jalwa sejothollo
081_0779 ho ya ho se seng
081_0780 american political writers
081_0781 la ho qala la nakwana
081_0782 re tla sebetsa ka matla
081_0783 moya wa ho etsa dintho
081_0784 tsa ho lefa ka mora
081_0785 ya ba mmalwa e ngodisitsweng
081_0786 bolaodi bo ka bonang e
081_0787 le hore ho tle ho
081_0788 royal dutch shell
081_0789 kiana
081_0791 e na le dimojule tse
081_0794 batshwaruwa
081_0795 ka kamano ya ho se
081_0796 lejwe
081_0797 hauhelele
081_0799 eo e leng karolo ya
081_0800 petroleum exporting countries
081_0802 transvala
081_0805 re tla tswela pele ka
081_0806 botle le ditabatabelo tsa ditho
081_0807 ikopanye le ofisi ya lefapha
081_0808 london
081_0809 e ise embasing kapa misheneng
081_0810 liberal arts college
081_0811 animated television series
081_0813 boramesebetsi ba lokela ho saena
081_0814 ofisi ya iss ya afrika
081_0817 national public radio
081_0818 station
081_0819 black sea coast
081_0820 tumellano ya nakwana le seng
081_0821 science fiction hall
081_0822 kapa badudi ba saruri ba
081_0824 tshebediso e sa lokang ya
081_0825 ho bonahala eka ha ho
081_0826 ikemetseng
081_0827 eldorado
081_0833 united states dollar
081_0835 ho ngodisa khampani e poraefete
081_0836 american sign language
081_0839 ka hara naha ya afrika
081_0840 tlhakiso ya mahlale a puo
081_0841 ba bolaodi ba bophelo bo
081_0844 western european countries
081_0845 palestinian national authority
081_0846 ba teng ka dipuo tse
081_0848 ba thupelo ba lokela ho
081_0849 ya boitsebiso kapa setifikeiti sa
081_0851 ho etsa diteko tsa hiv
081_0852 western united states
081_0854 tse ntjha tsa ho banka
081_0855 tsa fuwa maemo a tlase
081_0856 test ban treaty
081_0857 american free trade
081_0858 pimville
081_0859 western united states
081_0862 etsa kopo bakeng sa phemiti
081_0863 phetoho efe kapa efe e
081_0864 hard disk drive
081_0865 fact date january
081_0866 hubble space telescope
081_0868 ya grain sa ya tlhahiso
081_0869 general public license
081_0870 roodepoort
081_0871 ludwig von mises
081_0872 masimo a mang le a
081_0874 jwalo ka ha ho bontshitswe
081_0875 marcel
081_0876 united states navy
081_0878 osama bin laden
081_0880 open source initiative
081_0883 kenya tshebetsong mokgwa wa ho
081_0884 ho sebedisa lebitso le molaong
081_0885 le moemedi wa afrika borwa
081_0887 sa ntsaneng a le manyane
081_0888 functional programming languages
081_0889 ho tla nne ho dule
081_0890 tshwaneleha le moruo wa tshebetso
081_0891 molaotheo wa afrika borwa o
081_0892 army occupied cypriot
081_0893 khampani kapa khampani ya ba
081_0894 tlhekelo ka letona la bonono
081_0896 major professional sports
081_0897 tshwanela ho etsa kopo ya
081_0899 persian gulf states
081_0902 kutu
081_0903 kansas state university
081_0904 italian roman catholics
081_0906 merero e ntlafaditsweng ya tlhahiso
081_0907 ditlhaloso tsa lengolo la truste
081_0908 sefe sa tlhahlobo ya laesense
081_0911 a se ke a kena
081_0913 ho latela dipehelo tsa molao
081_0915 missing living people
081_0917 states presidential candidates
081_0918 cosmic microwave background
082_0004 tse pedi ho isa ho
082_0007 prime minister margaret
082_0008 later middle ages
082_0011 charles
082_0012 army occupied cypriot
082_0014 ho hokelwe phetolelo e tiiseditsweng
082_0016 sydney opera house
082_0019 hlokwang le boiphihlelo jwalo ka
082_0031 soviet union relations
082_0032 voutu ya baloto ya sephiri
082_0033 taolo ya thepa ya truste
082_0034 hore ke ka baka lang
082_0035 johns hopkins university
082_0038 jwalo ka ha e le
082_0041 late eighteenth century
082_0042 free trade association
082_0045 international civil aviation
082_0046 international red cross
082_0047 queen elizabeth
082_0051 ka ho potoloha o lokela
082_0055 boelang e ipheta hape hamorao
082_0056 united states house
082_0059 mekga efe e meng e
082_0060 sir francis drake
082_0061 guru granth sahib
082_0066 pherekgong
082_0069 medieval islamic world
082_0070 numeric character references
082_0071 setshelo sa witblits se neng
082_0073 new zealand english
082_0076 fundamental physics concepts
082_0081 trade
082_0083 grammy lifetime achievement
082_0090 chinese civil war
082_0092 asian nations asean
082_0093 distinguished service medal
082_0097 original
082_0101 british television series
082_0109 phahameng la molao le phatlaladitse
082_0111 atomic energy agency
082_0113 cape breton island
082_0114 republican national convention
082_0115 middle east peace
082_0119 san diego padres
082_0120 common law jurisdictions
082_0122 application programming interface
082_0124 golden gate bridge
082_0125 provincial
082_0126 cell lung carcinoma
082_0131 e tshwanetse ho etswa ho
082_0135 nakong e sa tswa feta
082_0140 early modern period
082_0142 human rights watch
082_0143 german democratic republic
082_0150 post world war
082_0151 id tsa mmala o motsho
082_0155 nations high commissioner
082_0158 spruit
082_0165 states environmental protection
082_0167 eastern roman empire
082_0168 reng taolo e ka nna
082_0169 ofisiri ya merero ya sapoto
082_0172 boholo bo shebaneng le balemi
082_0173 clive
082_0174 napier ke furu e ntle
082_0175 romela raporoto ya ho qala
082_0177 golden gate bridge
082_0179 federal communications commission
082_0181 boulevard
082_0183 south american nations
082_0184 letona la ntshetsopele ya setjhaba
082_0186 vicksburg
082_0195 national inventors hall
082_0200 iran iraq war
082_0201 ya bodulo ba saruri ho
082_0205 free market economy
082_0206 bakeng sa tshireletso ya seqatjwa
082_0207 ho fumana tjhelete ya sapoto
082_0210 ho isa ho tse robedi
082_0211 nobel peace prize
082_0217 national park service
082_0218 ke mang ya jarang boikarabelo
082_0219 jwalo ka karolo ya tshebetso
082_0221 bileng le seabo tsamaisong ya
082_0226 le tlhophiso ha mmoho le
082_0227 bakeng sa ngodiso jwalo ka
082_0229 hara lefapha le mafapheng a
082_0233 devan gar
082_0234 borasaense ba tlhaho ho hlokwa
082_0235 moputso wa ho qetela o
082_0238 java virtual machine
082_0248 petrus
082_0251 jwalo ka katoloso ya bongata
082_0254 tse hlaselang semela sa soneblomo
082_0255 palo e itseng ya dimela
082_0256 san diego chargers
082_0257 kgahlanong le botlokotsebe le bobodu
082_0259 motho ya tswang ka ntle
082_0260 haholo tlhodisanong e neng e
082_0261 ralph waldo emerson
082_0263 boemo bo hodimo la molemi
082_0264 operation desert storm
082_0265 o bohlokwa ka ho fetisisa
082_0267 kgannela tshenyong e phethahetseng ya
082_0275 ba le tokelo ya boqapi
082_0278 nang le boahi ba naha
082_0279 ke hore ho phetholwa ha
082_0280 a qetella a le lefatsheng
082_0281 grand theft auto
082_0282 graphical user interface
082_0283 foreign direct investment
082_0284 dibekeng tse pedi tse fetileng
082_0285 etsa karolo e kgolo ya
082_0288 latelwa melao le melawana ya
082_0292 kapa ho toloka moo ho
082_0293 international olympic committee
082_0294 american short story
082_0297 cold war era
082_0298 strong economic growth
082_0301 tse mpe le tse nyonyehang
082_0302 europe music awards
082_0305 health
082_0307 international financial institutions
082_0311 sir isaac newton
082_0313 american film institute
082_0314 constitution of the republic of
082_0317 ralph waldo emerson
082_0321 ka mokgwa wa elektroniki kapa
082_0322 elektroniki le kenya tjhelete ka
082_0323 ba ngodiso mokgeng kapa lekgotleng
082_0326 european central bank
082_0329 market prices estimated
082_0331 anc
082_0332 ho teteana ha mobu le
082_0336 sa ho epolla le ho
082_0339 digital signal processing
082_0340 league baseball teams
082_0342 mdda
082_0343 e leng independent complaints directorate
082_0344 french west africa
082_0345 molao wa ntlafatso ya dimela
082_0349 los angeles county
082_0351 ho sebetsana le kopo ya
082_0352 camp david accords
082_0355 magnetic field lines
082_0363 royal swedish academy
082_0365 nations general assembly
082_0370 current account deficit
082_0374 eastern orthodox saints
082_0376 royal national theatre
082_0380 socialist workers party
082_0381 sa kgolabolokwe e maqaphaqapha ya
082_0383 armenian apostolic church
082_0386 countries established diplomatic
082_0389 iss ya afrika borwa e
082_0390 ba ramosebetsi wa hao ho
082_0394 leo e ntshitsweng ka lona
082_0395 frankfort
082_0396 etswa ka puo ya kgetho
082_0397 natal
082_0398 afrika borwa ntle le ha
082_0400 selemo ho ya ka mm
082_0403 getro
082_0410 ngata di a hlokahala ho
082_0413 failed verification date
082_0418 ba neng ba tingwa menyetla
082_0419 ka hara ntlo ya seboka
082_0422 ho fanwa ka sona ha
082_0425 lokela ho sebediswa ha ho
082_0426 e ntse e tswela pele
082_0429 human genome project
082_0430 mong le e mong polasing
082_0431 lokela ho fuwa tlhompho e
082_0434 cambridge university press
082_0435 tumello ho tswa ho monga
082_0436 reform
082_0437 motho ya tswang naheng ya
082_0438 mme ho kenwe ho lona
082_0441 qhalanya tjhefo ena diforong tsa
082_0442 di tshwanetse ho elwa hloko
082_0443 tlhaho la motho e mong
082_0444 harvard university people
082_0445 hamburg
082_0446 tshwasa ka palo e nyenyane
082_0450 cite journal author
082_0453 o ngodiswe rejistareng ya baahi
082_0455 president abraham lincoln
082_0456 tlhokeho ya taolo ya dikokwanyana
082_0459 alexandra
082_0460 barkly
082_0461 arthur conan doyle
082_0462 lokelwa ho romelwa dikgweding tse
082_0469 tefello ya kopo e hlokehang
082_0474 digital signal processing
082_0477 getrude
082_0482 association football clubs
082_0488 containing video clips
082_0490 ke hore ha eba o
082_0491 selborne
082_0493 ha ho ka etseha hore
082_0497 ho ya ka mofuta wa
082_0499 e ngotsweng ke marius greyling
082_0501 setifikeiti se kgutsufaditsweng sa lenyalo
082_0502 tsa rona di lebiswa ho
082_0505 microwave background radiation
082_0508 fact date november
082_0509 crystal
082_0512 phupu
082_0513 nigel
082_0515 buang le maemo ao e
082_0518 operation enduring freedom
082_0519 coronary artery disease
082_0520 ka kotjwa ho registrar of
082_0524 johanesburg
082_0526 lesotho
082_0528 ka nngwe ho tsamaisa koro
082_0531 articles containing proofs
082_0539 second balkan war
082_0540 united states naval
082_0542 february
082_0543 strategic air command
082_0544 worth
082_0549 be le bokgoni ba ho
082_0550 green coffee beans
082_0552 tswang mafapheng a fapaneng a
082_0556 national
082_0558 kapa ofe ya tswelang pele
082_0559 million years old
082_0560 kutlwanong
082_0561 ba hula ka tlhako tsa
082_0565 dar es salaam
082_0567 electron degeneracy pressure
082_0568 agriculture organization fao
082_0569 tse mmalwa ho tloha jwale
082_0571 se sebediswa mobung ha ho
082_0572 mmusapelo
082_0573 ke tokomane ya semmuso e
082_0576 cambridge university press
082_0578 royal albert hall
082_0581 united kingdom parliament
082_0582 ho teng balemi ba batsho
082_0583 mahola a mariha a selemo
082_0584 ya lengolo la bopaki la
082_0586 motho wa afrika borwa ya
082_0590 tiiseditsweng tsa mangolo a hao
082_0593 programming languages created
082_0594 ipopeng
082_0595 tshwanetse ho tswela pele ho
082_0596 amino acid residues
082_0597 ditjeo di tla behwa ke
082_0601 amateur radio operators
082_0605 thekenoloji ya tlhahisoleseding le dikgokahano
082_0613 pusat statistik provisionally
082_0615 ha a le dilemo tse
082_0617 ha ona nakong ya selemo
082_0623 single transferable vote
082_0628 african council for natural scientific
082_0629 zeerust
082_0636 castel sant angelo
082_0637 tswa dinaheng tsohle tseo mokopi
082_0639 e mele ke tshenyo e
082_0643 diyuniti tsa puo di tla
082_0646 eastern orthodox church
082_0648 seo feberu e tshehla e
082_0651 states coast guard
082_0652 best supporting actress
082_0653 menyetla ya thuso ya ditjhelete
082_0654 na le boikarabelo ba ho
082_0655 second continental congress
082_0656 neng kapa neng ha ho
082_0659 international maritime organization
082_0661 ba mekgwa ya ho nosetsa
082_0664 kgothaletsa ho ba le seabo
082_0665 british overseas territories
082_0666 graphical user interface
082_0667 balemi ba afrika borwa ba
082_0670 ya ka academy of science
082_0671 nuclear chain reaction
082_0673 di na ho ba teng
082_0674 ho ka potlakisa tshebetso ena
082_0675 dubious date march
082_0677 ya ho kganna ya borutehi
082_0678 population
082_0679 functional programming languages
082_0680 nobel peace prize
082_0682 ho lefa lekgetho la nakwana
082_0684 best adapted screenplay
082_0685 united states president
082_0689 ho boetse ho na le
082_0690 seng le se seng sa
082_0691 canadian prime minister
082_0696 ku klux klan
082_0699 russian orthodox church
082_0704 ntshetsa pele ditabatabelo tsa balemi
082_0707 james clerk maxwell
082_0710 ao re a kentseng tshebetsong
082_0711 se tswang ho chartered accountant
082_0712 mang ya jarang boikarabelo ba
082_0713 harvard university alumni
082_0714 carletonville
082_0723 mohlwedi
082_0725 ba be le seabo se
082_0726 american football team
082_0729 charles sanders peirce
082_0730 baragwanath
082_0731 daveyton
082_0732 tse phahameng ka ho fetisisa
082_0735 ho registrar of animal improvement
082_0736 commedia dell arte
082_0738 union
082_0739 higher education institutions
082_0740 dark horse comics
082_0743 le ka hodimo ho moo
082_0744 kgaso ya radio ya motse
082_0752 hore khampani kapa cc e
082_0755 kapa ka transfere ya elektroniki
082_0759 hore ka ho ya ka
082_0760 monaco grand prix
082_0763 ya boitshwaro ya bahlanka ba
082_0766 commission
082_0769 ba leruo bo le ka
082_0771 monyetla wa tlhaselo ya malwetse
082_0774 average annual precipitation
082_0778 ho tswa porofensing ka nngwe
082_0780 programming language
082_0782 bona bo tlwaelehileng ba semolao
082_0783 a neng a sebetsa teng
082_0785 metropolitan statistical area
082_0786 wa ho nyehla ha dinomoro
082_0787 popeho ya pustule tse fifetseng
082_0788 roman catholic archbishops
082_0791 thabong
082_0792 motlatsi wa ofisiri ya tlhahisoleseding
082_0796 high middle ages
082_0801 major league record
082_0803 scottish national party
082_0815 tsananapa
082_0816 kotjwa hore o iteanye le
082_0817 tourism
082_0821 native american culture
082_0824 jouberton
082_0829 kgokong
082_0830 tlatse ka ho arohanya ditlhaku
082_0834 koro e tswang ka ntle
082_0835 professional sports leagues
082_0837 episcopal church usa
082_0838 moruti wa kereke ya ng
082_0839 floating point unit
082_0840 taylor
082_0843 international monetary fund
082_0848 united states history
082_0857 english civil war
082_0860 gideon
082_0862 foreign language film
082_0866 current prime minister
082_0868 iowa state university
082_0870 le disebediswa tsa bona ho
082_0877 hip hop music
082_0885 greenhouse gas emissions
082_0889 phemiti ya bodulo ya saruri
083_0001 ho etsa qeto mabapi le
083_0003 tiisitse hore ha ho hlwahlwa
083_0004 batho ba afrika borwa bao
083_0005 chinese civil war
083_0006 mekgwa le melao ya ho
083_0007 ho nehelana ka tshebeletso ya
083_0008 baloi
083_0009 declared martial law
083_0010 ho ntshetsa pele dipuo tsa
083_0011 a re nke hore bolelele
083_0012 ya nang le phemiti ya
083_0013 kenyelletswa le ditaba tse mabapi
083_0014 e etsa bonnete ba hore
083_0015 hang ka selemo ka mora
083_0016 ke molao wa motheo ho
083_0017 saense ya lekgotleng la molao
083_0018 treaty organization nato
083_0019 central processing unit
083_0020 rona ba ho lwantsha botlokotsebe
083_0021 ho sebetsa le dinaha tse
083_0022 modern standard arabic
083_0023 mmala o motsho le bosweu
083_0024 sebokonyana se ntseng se hola
083_0026 monetary fund imf
083_0027 ho hlwaya tefo ya hao
083_0028 ho teng dintlha tse mmalwa
083_0029 lebitso la seteishene sa mapolesa
083_0030 british west indies
083_0031 presidential representative democratic
083_0032 abdur rahman khan
083_0033 tsa diporofensi di a nahanwa
083_0034 free software programmed
083_0035 american nobel laureates
083_0036 hong kong island
083_0038 ba hore o na le
083_0039 ha e a tshwanela ho
083_0040 sefe kapa sefe se ka
083_0042 sa ho ba le seabo
083_0043 e felletseng ya kgatiso tsa
083_0045 italian roman catholics
083_0046 puo ya hore tshebediso ya
083_0047 fact date july
083_0048 o nka kilograma e le
083_0049 management
083_0050 ka ho nka disampole tsa
083_0051 la metsi a mangata hoo
083_0052 mtv video music
083_0053 eo ho fihlwang ho yona
083_0054 ntshetsopele ya molemi wa grain
083_0055 ludwig von mises
083_0056 palamente ya rephaboliki ya afrika
083_0057 los angeles county
083_0058 tlameha ho ba karolo ya
083_0059 world trade center
083_0060 john von neumann
083_0062 halleck
083_0063 eo ba nang le yona
083_0064 hona ke hobane tsa tlhaho
083_0065 hlalositsweng bakeng sa ditjhelete tse
083_0066 cosmic microwave background
083_0067 united states army
083_0068 security assistance force
083_0069 ridgeway
083_0070 wa afrika borwa ntle le
083_0071 tlameha ho tlatswa ke mokopi
083_0072 puo ya ho ithuta le
083_0073 garrick
083_0074 nka nako e telele ho
083_0075 sepolesa sa afrika borwa kapa
083_0076 elections took place
083_0077 ba puo e tla hloka
083_0078 comic book series
083_0079 jwalo ka o motjha mme
083_0080 ya dipuo tsohle tsa semmuso
083_0081 jwaloka ha o fetisitswe le
083_0082 folaga e ntle ka ho
083_0083 le hlalosang hore ke ka
083_0084 seetebosigo
083_0085 chinese communist party
083_0086 ha ba hloke ho ntsha
083_0087 persian gulf states
083_0089 hore ha ba tsebe hore
083_0090 ho ba motswadi wa letholwa
083_0091 north west company
083_0092 verify credibility dater
083_0093 north germanic languages
083_0094 tokelo ya ho ba le
083_0095 power parity comparisons
083_0097 schonkenville
083_0099 american musical theatre
083_0100 late twentieth centuryodowska curie
083_0101 mariha e hloka nako e
083_0102 kutu
083_0104 wayne state university
083_0105 german air force
083_0106 ka mora ho ba o
083_0107 wa setjhaba lawrence mushwana o
083_0108 nakong ya matsatsi a balemi
083_0109 hore setjhaba se lekole ditaba
083_0110 ho na le ditsela tse
083_0111 kansas state university
083_0112 le thibelo ya kgethollo e
083_0113 borwa kapa badudi ba saruri
083_0114 yona ha feela le tla
083_0116 ho etsa ditokiso tse hlokahalang
083_0118 dikarolong tsa yona tsa metso
083_0121 tsa ho iteanya le motho
083_0122 tla amohelwa jwalo ka setswantle
083_0123 belfast
083_0124 final resting place
083_0125 missing living people
083_0128 ho ba le seabo lenaneong
083_0129 ya moithuti e le yona
083_0130 haeba motsekiswa a hloleha ho
083_0131 dibeke tse pedi ho ya
083_0132 ba le taolo hodima maemo
083_0133 ya hao e se e
083_0135 ke boikarabelo ba moahi e
083_0136 merero e ntlafaditsweng ya tlhahiso
083_0137 e nngwe ho ya ho
083_0138 e mong le e mong
083_0139 le ho kenya tshebetsong ditshisinyo
083_0140 dilemong tse mmalwa tse fetileng
083_0141 jwang ho matlafatsa kapa hona
083_0142 received mixed reviews
083_0143 wa ho qala wa leloko
083_0144 riverside
083_0145 kopo ya ho tholwa ha
083_0146 bo le ka tlase ho
083_0147 butle haholo hoo balemi ba
083_0148 malwetse a pustule a bakwang
083_0149 ho phetholwa ha pele ha
083_0150 medieval islamic world
083_0151 ditlhaloso tsa lengolo la truste
083_0152 pope urban
083_0153 ke wa qobella molemi ho
083_0154 memphis
083_0155 major political parties
083_0156 ba ne ba atisa ho
083_0157 romela setifikeiti se tswang ho
083_0158 ho tswela pele ka ho
083_0159 higher education institutions
083_0160 ba eba siyo lebatoweng leo
083_0161 le katleho ya sepheo sa
083_0162 dipehelo tsa leano di ka
083_0163 united states air
083_0164 mathata a phepelo ya motlakase
083_0165 guano islands act
083_0166 controlled substances acte
083_0167 guru granth sahib
083_0169 ofe kapa ofe wa mmuso
083_0170 ebe o nka kilograma e
083_0174 gross domestic product
083_0175 boemong bo hodimo bakeng la
083_0176 american film directors
083_0180 mang a na le dikotola
083_0183 le haufi le la sars
083_0184 itshebetsang puong jwalo ka bafetoledi
083_0185 lekgotla le molaong le ngodisitsweng
083_0186 ivy
083_0187 united arab emirates
083_0188 real gdp growth
083_0189 quantum field theory
083_0190 ya tjhelete le meralo ya
083_0191 sound
083_0192 california state university
083_0193 zimbabwe
083_0194 ya ka maemo a amohelehileng
083_0195 botlhokong
083_0196 phethahatso
083_0197 a mmalwa ho ya dibekeng
083_0198 bonaparte
083_0199 a se ke a kena
083_0200 ba mmalwa le traste ditho
083_0201 setifikeiti sa tlhakiso sa sepolesa
083_0202 international financial institutions
083_0203 le dimela mabapi le mongobo
083_0204 di tla lokela hore di
083_0205 jewish american writers
083_0206 batho ba habo rona hore
083_0207 batho ba bang ke ba
083_0209 ho kenweng ho ona ka
083_0211 president woodrow wilson
083_0212 bakeng sa ho romela hlapi
083_0213 north atlantic treaty
083_0214 mokakawe
083_0215 mokgwa o sa tlwaelehang re
083_0216 lengolo la bopaki la phytosanitary
083_0217 e fumaneha lefapheng la kgwebo
083_0218 tse nyenyane le tse mahareng
083_0219 national park service
083_0221 art deco buildings
083_0225 ka ho etsa kopo ya
083_0227 leondale
083_0229 sherman's
083_0232 meade
083_0233 ya ho fana ka beile
083_0235 hlahiswa e bongata bo bokae
083_0236 e netefaditsweng ya bukana ya
083_0237 ba badudi ba saruri ba
083_0238 hore ditho tsa palamente di
083_0239 ka mehla bala leibole ya
083_0240 american airlines flight
083_0241 bo ikemetseng ba ditletlebo e
083_0242 ka mokgwa ofe kapa ofe
083_0243 wa mofuta wa diphoofolo kapa
083_0245 leo mobu o leng ho
083_0246 keketseho ya boleng ba masimo
083_0247 section e ka fana ka
083_0248 tshebetsong ke lefapha la ditaba
083_0250 ya b di be tharo
083_0251 ba ke ke ba kgona
083_0252 american television actors
083_0253 bonnete hore molemi ke karolo
083_0254 clarify date march
083_0255 tjhelete eo e seng ya
083_0256 wa hae a neng a
083_0258 e leng commission for conciliation
083_0259 nna tsa kgannela tshenyong e
083_0260 rugby union team
083_0261 clarify date november
083_0262 hore ho teng balemi ba
083_0263 arizona state university
083_0264 lengolo le tswang ho setho
083_0265 dikri diploma ya dilemo tse
083_0268 o loketseng tlhahiso ya dijothollo
083_0269 o le moahi wa afrika
083_0270 reef
083_0271 etsa kopo ya ho busetswa
083_0272 camp david accords
083_0273 lebitsong la motho e mong
083_0275 le tlhokeho e potlakileng ya
083_0276 dithuso tsa setjhaba ka ditjhelete
083_0279 david
083_0280 partially ordered set
083_0281 rugby union team
083_0282 blacksash
083_0283 o ne o sebediswa ke
083_0284 le ba nang le seabo
083_0285 savannah
083_0286 kamano pakeng tsa theko le
083_0287 clarence's
083_0288 nna ha etsahala hore o
083_0289 le hore re kgone ho
083_0290 ditshebeletso tsa sepolesa sa afrika
083_0291 tekolo botjha ya tshebetso tsa
083_0292 afidaviti eo ho entsweng kano
083_0293 la ho qetela la ho
083_0296 social democratic parties
083_0297 box office success
083_0298 new prime minister
083_0299 marble
083_0300 tse ding tsa dintho tseo
083_0301 tshebetso tsa lekgetho la kuno
083_0304 disebediswa tse fapaneng tsa ho
083_0305 day saint movement
083_0306 ya seteraeke kapa ho notlellwa
083_0307 tone ka nngwe ho tsamaisa
083_0308 ditokomane tse latelang tse tshehetsang
083_0309 leibole ya sebolayakokwanyana seo o
083_0310 qhamakwane
083_0312 abednego
083_0313 hore ke mahola afe a
083_0315 bahwebi ba sa sebedise tlwaelo
083_0316 notable examples include
083_0317 borwa a ka ba teng
083_0318 tsa tlhahlobo tse molaong mme
083_0320 tsa lona ha di a
083_0322 na le tshepo ya hore
083_0323 pele ho ngodiso ho ya
083_0324 ke ho fihlela ho latelang
083_0325 romellwang ho tswa ka ntle
083_0327 batlang ho fumana boahi ba
083_0328 ke mang ya ka etsang
083_0329 native american tribes
083_0330 baemedi ba porofensi ho ncop
083_0331 tefiso e balletsweng ya ngodiso
083_0332 american musical theatre
083_0333 ya ho a mararo a
083_0334 ho hlaha letloleng la dipenshene
083_0335 ka hlaloswa ka mokgwa o
083_0336 etsa diketso tse hlabisang dihlong
083_0337 ya hao ka tsela ya
083_0338 ya bt di tshwanetse ho
083_0339 ho hlepha ho tshwanetse ho
083_0340 kansas city royals
083_0341 badudi ba saruri ba batlang
083_0342 botoloki ka mohala tsa afrika
083_0343 grisly
083_0344 ka puo ya pulo ya
083_0346 tla tswela pele ho sebetsa
083_0348 e ke ke ya feta
083_0351 kopo ya phemiti ya phapanyetsano
083_0353 test ban treaty
083_0354 e ka nka dikgwedi tse
083_0356 sebedisa disebediswa tse fapaneng tsa
083_0358 metsotso
083_0359 ho fana ka beile le
083_0360 ka hara lekgotla la naha
083_0361 moo ntate wa hae a
083_0364 mafelong a kgwedi e nngwe
083_0366 ho latela dipehelo tsa molao
083_0371 mister
083_0373 united states federal
083_0374 american short story
083_0375 bohlokwa ka ho fetisisa e
083_0377 di ka nna tsa fetoha
083_0378 sebakeng seo ho sona disebediswa
083_0379 atlantic slave trade
083_0381 ho tsebisa lefapha la tsa
083_0382 clarify date november
083_0383 kapa ofe ya batlang ho
083_0384 democratic
083_0386 mekgwa e lokileng ya ho
083_0387 ditherisano tse kopanetsweng ke basebetsi
083_0388 di fapana ho ya ka
083_0390 motho ya jwalo ha se
083_0391 kgetho ya bamamedi bao ho
083_0392 ho ithuta dipuo tse ding
083_0394 le balemi ba ntseng ba
083_0395 leng la mmuso le provenseng
083_0396 dinepe tse pedi tsa boholo
083_0398 pakeng tsa afrika borwa le
083_0399 football league teams
083_0400 etsa hore a kgone ho
083_0401 edwin
083_0402 social democratic party
083_0405 tsa pele tsa mabitso le
083_0406 tekolo botjha ya ditlwaelo le
083_0407 american voice actors
083_0408 terekere le disebediswa tsa temo
083_0410 ke mohlodi wa bohlokwa wa
083_0413 tlhahisoleseding e fumanwe bukaneng ya
083_0414 kopo ya hao ka tsela
083_0415 saint lawrence river
083_0417 ho balwa ka botebo le
083_0419 lebanese armed forces
083_0421 ya ho ngodisa setsi sa
083_0423 re batla ho tswela pele
083_0424 ditokelo tsa bamedisi ba dimela
083_0425 dutton
083_0426 ya dipuo tsa motswalla tse
083_0427 mohahamoriti
083_0428 province
083_0429 president
083_0430 human rights record
083_0431 boramesebetsi ba lokela ho tlatsa
083_0434 united states relations
083_0435 puo ya bajete le setatemente
083_0437 etsa hore o kgone ho
083_0439 ya jwalo ha se mang
083_0440 dikgatiso tsa menwana ya mokopi
083_0441 mong le e mong ya
083_0442 diphaphosing tsa borutelo ka nako
083_0443 pope benedict
083_0445 billion years ago
083_0446 ho hloleha ho etsa jwalo
083_0447 ford motor company
083_0448 tse seng di ile tsa
083_0449 monyakeng
083_0451 langton
083_0452 kgetho ya mefuta ya peo
083_0453 dipalopalo
083_0454 ha eba o na le
083_0455 tshebetso ya ho fetola se
083_0457 naha ya habo rona e
083_0458 n g rjuna
083_0459 empa re ke ke ra
083_0460 supreme court justice
083_0461 ya mehlodi le moralo wa
083_0462 duncan
083_0463 ho tjheswa le ho kgutliswa
083_0464 american football conference
083_0465 rock music groups
083_0466 winter olympic games
083_0467 la mokopi kapa lebitso la
083_0469 la dithuto la afrika borwa
083_0470 brixton
083_0471 internal combustion engine
083_0473 reactive oxygen species
083_0474 fane ka nomoro ya akhauntu
083_0476 states presidential candidates
083_0477 tokelo ya hao ya ho
083_0478 etsa hore ho be teng
083_0479 ho tsamaya sebakeng seo feberu
083_0480 ha batswadi ba ngwana ba
083_0481 institjhute
083_0482 ya beke le beke ya
083_0483 education
083_0485 moo o ile wa sebediswa
083_0486 imperial japanese navy
083_0487 thuto ya kalafo ya tsa
083_0492 o metha peo le manyolo
083_0493 association football clubs
083_0494 tlosa pompo pele ba ilo
083_0496 form hydrogen bonds
083_0498 ya manejara wa lebatowa wa
083_0499 san pedro sula
083_0500 dennilton
083_0501 american film institute
083_0502 dikarolong tse ka hodimo tsa
083_0503 tumello ho tswa ho monga
083_0504 phihlelo ya dithuso tsa sapoto
083_0505 mapolesa se haufi le moo
083_0506 cell lung carcinoma
083_0507 ho qetela le le ka
083_0508 grammy lifetime achievement
083_0509 a puo ka ho hlahisa
083_0510 lokelang ho latelwa ha ho
083_0511 mohahamoriti
083_0512 american film producers
083_0513 tse amohetsweng jwalo ka ditswantle
083_0514 malwetse a pustule a bakwang
083_0515 grisly
083_0516 ho ntshetsa pele dipuo tsa
083_0517 tekolo botjha ya ditlwaelo le
083_0518 botoloki ka mohala tsa afrika
083_0519 ditshebeletso tsa sepolesa sa afrika
083_0520 john von neumann
083_0521 ba badudi ba saruri ba
083_0522 mong le e mong ya
083_0524 ivy
083_0528 tokelo ya ho ba le
083_0529 tlosa pompo pele ba ilo
083_0530 o nka kilograma e le
083_0531 puo ya bajete le setatemente
083_0532 tsa diporofensi di a nahanwa
083_0533 ya dipuo tsa motswalla tse
083_0534 italian roman catholics
083_0535 sefe kapa sefe se ka
083_0536 keketseho ya boleng ba masimo
083_0537 lebanese armed forces
083_0538 hopola hore re kgona ho
083_0539 lokela ho tlatswa ke bajalefa
083_0540 final resting place
083_0541 los angeles county
083_0542 selinah
083_0543 ho ba le seabo lenaneong
083_0544 nyetsweng eo mohatsae e leng
083_0545 ya nang le phemiti ya
083_0547 eo ho fihlwang ho yona
083_0548 tsa tsebo tse hlokahalang ho
083_0549 quantum field theory
083_0551 o metha peo le manyolo
083_0552 ka ntle eo e leng
083_0553 la ho qetela la ho
083_0555 football league teams
083_0556 na le boikarabelo mabapi le
083_0557 clarify date november
083_0560 baloi
083_0562 tse nyenyane le tse mahareng
083_0563 sefe sa tlhahlobo ya laesense
083_0564 le hore hara mananeo a
083_0565 wayne state university
083_0566 native american tribes
083_0567 ya taelo ya semolao ya
083_0568 leo mobu o leng ho
083_0570 leibole ya sebolayakokwanyana seo o
083_0571 ba le taolo hodima maemo
083_0572 ya dipuo tsohle tsa semmuso
083_0573 nakong ya matsatsi a balemi
083_0574 saint lawrence river
083_0576 national park service
083_0577 gross domestic product
083_0578 dikgatiso tsa menwana ya mokopi
083_0579 clarify date november
083_0581 rugby union team
083_0582 ya jwalo ha se mang
083_0584 boahi ba bona ba naha
083_0585 o loketseng tlhahiso ya dijothollo
083_0586 pope urban
083_0587 sebedisa disebediswa tse fapaneng tsa
083_0588 power parity comparisons
083_0589 world trade center
083_0590 ridgeway
083_0591 borwa a ka ba teng
083_0592 dikri diploma ya dilemo tse
083_0593 ke e nngwe ya dintlha
083_0596 ba dilemo tse ka hodimo
083_0597 sa ho ba le seabo
083_0598 sehla se hlahlamang sa ho
083_0599 butle haholo hoo balemi ba
083_0600 ba mmalwa le traste ditho
083_0601 ka mora ho ba o
083_0602 states presidential candidates
083_0603 batho ba afrika borwa bao
083_0605 bonaparte
083_0606 savannah
083_0607 united arab emirates
083_0610 jwalo ka o motjha mme
083_0612 hore setjhaba se lekole ditaba
083_0613 brixton
083_0614 dithuso tsa setjhaba ka ditjhelete
083_0616 pope benedict
083_0617 ha ba hloke ho ntsha
083_0618 sebediswa jwalo ka ha ho
083_0619 imperial japanese navy
083_0621 baemedi ba porofensi ho ncop
083_0622 mmala o motsho le bosweu
083_0623 tsa ho iteanya le motho
083_0624 ba ke ke ba kgona
083_0625 president
083_0627 hona ke hobane tsa tlhaho
083_0629 o ne o sebediswa ke
083_0631 le katleho ya sepheo sa
083_0632 kapa ofe ya batlang ho
083_0633 eo ba nang le yona
083_0635 management
083_0636 lebitsong la motho e mong
083_0637 wa ho qala wa leloko
083_0638 president woodrow wilson
083_0639 dintlha dife kapa dife tse
083_0640 rona ba ho lwantsha botlokotsebe
083_0642 new prime minister
083_0644 di tla lokela hore di
083_0645 mathata a phepelo ya motlakase
083_0646 mekgwa e lokileng ya ho
083_0649 abednego
083_0662 democratic
083_0663 kopo ya hao ka tsela
083_0664 controlled substances acte
083_0665 german air force
083_0666 ya hao ka tsela ya
083_0670 o romele bopaki ba tefo
083_0674 presidential representative democratic
083_0675 real gdp growth
083_0676 botjha le ho sebedisa mehlodi
083_0677 ya hao e se e
083_0679 sherman's
083_0680 le ho kenya tshebetsong ditshisinyo
083_0681 ditokelo tsa bamedisi ba dimela
083_0682 phethahatso
083_0683 institjhute
083_0684 ditherisano tse kopanetsweng ke basebetsi
083_0685 ya moithuti e le yona
083_0687 e nngwe ho ya ho
083_0691 chinese civil war
083_0692 marble
083_0693 hong kong island
083_0694 di ka nna tsa fetoha
083_0695 day saint movement
083_0696 polasi le nang le boleng
083_0697 california state university
083_0699 tlhahisoleseding e fumanwe bukaneng ya
083_0701 batho ba habo rona hore
083_0702 ke boikarabelo ba moahi e
083_0703 etsa diketso tse hlabisang dihlong
083_0704 ya seteraeke kapa ho notlellwa
083_0705 puo ya hore tshebediso ya
083_0706 schonkenville
083_0707 art deco buildings
083_0709 saense ya lekgotleng la molao
083_0711 le hore re kgone ho
083_0713 international criminal court
083_0714 o ka nna wa fafatsa
083_0715 ho hlwaya tefo ya hao
083_0717 ho hloleha ho etsa jwalo
083_0718 dula a le teng kaswadi ba
083_0720 of access to information act
083_0721 central processing unit
083_0722 botlhokong
083_0723 ke ho fihlela ho latelang
083_0724 ludwig von mises
083_0725 ya manejara wa lebatowa wa
083_0726 ho tsamaya sebakeng seo feberu
083_0728 laolla foromo ya kopo ho
083_0730 dipaterone tsa pula le ho
083_0735 sera
083_0737 ba eba siyo lebatoweng leo
083_0738 bonnete hore molemi ke karolo
083_0739 guru granth sahib
083_0740 e ke ke ya feta
083_0741 sebedisa lebitso le molaong le
083_0742 united states air
083_0743 mister
083_0744 ho itsebisa jwalo ka ntate
083_0745 form hydrogen bonds
083_0746 medieval islamic world
083_0747 kopo ya phemiti ya phapanyetsano
083_0750 united states army
083_0751 ho ya ka dipehelo tsa
083_0752 sun
083_0754 ho hlaha letloleng la dipenshene
083_0755 etsa kopo ya ho busetswa
083_0756 monetary fund imf
083_0757 semmuso ya lekgetho e ka
083_0758 boemong bo hodimo bakeng la
083_0760 kopo ya ho tholwa ha
083_0761 e fumaneha lefapheng la kgwebo
083_0762 american football conference
083_0763 lengolo le tswang ho setho
083_0765 le ba nang le seabo
083_0766 setifikeiti sa tlhakiso sa sepolesa
083_0770 clarence's
083_0772 romela setifikeiti se tswang ho
083_0773 mokakawe
083_0774 le tumello e ngotsweng fatshe
083_0776 ya bt di tshwanetse ho
083_0777 metsi a mangata hoo tse
083_0778 arizona state university
083_0779 eyes wide shut
083_0781 ka mokgwa ofe kapa ofe
083_0782 ho etsa qeto mabapi le
083_0783 received mixed reviews
083_0784 seteisheneng sa mapolesa se haufi
083_0785 tshilafatso kapa tshenyo e sa
083_0786 memphis
084_0001 national hockey league
084_0002 ba ka hodimo ho dilemo
084_0003 kopo ya setefikeiti sa ho
084_0004 ka baka hore a lefiswe
084_0005 tsa ka hara naha le
084_0007 john
084_0009 kgopolo ya hore dihlahiswa tse
084_0010 tswela pele ka mokgwa wa
084_0011 motho a tshwerweng ho yona
084_0012 law enforcement agencies
084_0015 tadimilwe thibelo ya tlhodisano le
084_0016 kgone ho tswela pele ka
084_0018 naha ya afrika borwa kapa
084_0019 united states president
084_0020 rona bo tataiswe haholo ke
084_0021 o neng o rena ditherisanong
084_0022 mabapi le mefuta e metle
084_0023 e tswang ho registrar of
084_0024 red blood cells
084_0025 nfc championship game
084_0026 bridgeport
084_0027 high seas fleet
084_0028 ho hlokeha lengolo la tumello
084_0030 south asian association
084_0031 a lehodimo nakong ya tshebediso
084_0032 tokomane eo o batlang ho
084_0033 supreme court ruled
084_0034 le dipehelo tse ding tse
084_0036 e fumaneha ka potlako weposaeteng
084_0037 roman catholic priests
084_0038 ka dikopi tse tiiseleditsweng tsa
084_0040 e le hore ba tle
084_0041 red blood cells
084_0043 dikarolo dife kapa dife tse
084_0044 banka
084_0050 formal diplomatic relations
084_0051 articles including recorded
084_0052 ya etsang kopo ya tokomane
084_0053 saint john river
084_0054 ya tumello ya ho romela
084_0056 leqephe la pele la foromo
084_0057 boqwabi
084_0058 pakeng tsa dikarolwana tsa mobu
084_0061 seo a lokelang ho se
084_0062 golden globe film
084_0063 o ne a atisa ho
084_0064 american jewish people
084_0065 e ka nna yaba o
084_0068 wa afrika borwa a ka
084_0069 human development index
084_0070 argentina ho ya afrika borwa
084_0071 united states
084_0072 ya poso e sa risefuwang
084_0073 pholisi ya naha ya batjha
084_0075 southwestern united states
084_0076 tla tsamaelana le molao wa
084_0077 boholo ba masimo a hao
084_0078 tlhokomelo mabapi le tshebediso e
084_0079 internet protocol suite
084_0080 midrand
084_0082 kapa mokga ofe kapa ofe
084_0083 randburg
084_0084 ho na le mefuta e
084_0085 american male singers
084_0086 army air corps
084_0087 taolo ka dikhemikhale le mefuta
084_0088 basebeletsi ba hao le dijothollo
084_0090 united states senate
084_0092 ya pele e neng e
084_0094 miller's
084_0097 dutch east india
084_0098 ka tsela e ke keng
084_0099 federal trade commission
084_0101 blood
084_0103 ka mokgwa o hlakileng ho
084_0104 ya selemo kapa ya sehla
084_0105 big bang model
084_0106 afrika borwa ha kopo e
084_0108 ke ke wa kgona ho
084_0109 kontane kapa ka tjheke e
084_0110 ka ba ka mokgwa wa
084_0111 a na le dijo tse
084_0112 hore ho na le tshebetso
084_0113 golden globe winners
084_0114 ngotsweng ya ho ngodisa ofising
084_0115 russian civil war
084_0116 hodimo ho moo ba tla
084_0117 tse phahameng tsa taolo ka
084_0118 ya ho jala dijothollo tse
084_0119 seng le lefilwe bakeng sa
084_0120 phethahatso ya leano lena e
084_0121 kopi e tiiseditsweng ya bukana
084_0122 ba ngodise ho south african
084_0123 sebediswa ho laola lebelo la
084_0125 moscow state university
084_0126 mme re tshepa hore moya
084_0128 randfontein
084_0129 harry
084_0130 pheta tshebetso ena makgetlo a
084_0131 ya taelo ya tshireletso ya
084_0134 lefapheng la kgwebo le indasteri
084_0135 buddhism
084_0136 re kopa hore o ele
084_0137 ka mora kotulo ya koro
084_0138 kapa hofe ho ka bang
084_0140 screen actors guild
084_0141 motor vehicle manufacturers
084_0142 peo ya ona e ka
084_0143 tsa tokisetso tsa lekgetho di
084_0145 feta pele hore ho na
084_0146 american psychiatric association
084_0148 tsena tsohle di ile tsa
084_0149 proffesor
084_0150 national science foundation
084_0151 manejara wa lebatowa a ananela
084_0152 karolong e ka tlase ya
084_0153 tsa taolo ka dikhemikhale le
084_0155 e fuwa baahi ba naha
084_0157 tla tshwarwa ka mokgwa o
084_0158 hore ditokomane tsa mmuso ha
084_0159 fifa world cup
084_0161 hlodisana le dijothollo mabapi le
084_0163 ditho tsa palamente ha di
084_0164 la dibokonyana tsena tse salang
084_0165 seng feela ke ba buang
084_0166 cathode ray tube
084_0167 science fiction novel
084_0168 senyesemane
084_0169 church turing thesis
084_0170 gibbon
084_0171 man
084_0172 moo ho ipehilweng ka tsela
084_0173 le ho tempuwa ke mosebeletsi
084_0174 bakeng sa nako e kgutshwane
084_0176 van der waals
084_0177 mabapi le sehla se tlang
084_0178 lokile pele o etsa kopo
084_0179 tlhahiso e tswetseng pele ya
084_0180 diminerale kapa mahakwe a bohlokwa
084_0181 ka nepo le ho boloka
084_0183 afrika borwa ba leng mose
084_0184 saense ya tlhaho dikri diploma
084_0185 north germanic languages
084_0188 television shows set
084_0189 united states geological
084_0190 hangata a na le metso
084_0194 sebetsa jwalo ka borasaense ba
084_0195 senqu
084_0196 tumello e ngotsweng fatshe e
084_0197 etsa hore balemi ba kgone
084_0198 bakeng sa morwalo o mong
084_0199 mabitso a bonkgetheng bakeng sa
084_0200 modern orthodox judaism
084_0202 tswela pele ho sebetsa le
084_0203 hospital
084_0204 fuwa ditokelo tsa bona tsa
084_0205 bakeng sa nako ya boholo
084_0206 le ho romela ditokomane ho
084_0207 ba bangata ba nang le
084_0208 balemi ba batjha ba ka
084_0209 akhaonteng e latelang ya banka
084_0210 court ha e le traste
084_0211 seboka sa naha le lekgotla
084_0212 l cuin abbr
084_0213 ka mokgwa o sa tlwaelehang
084_0214 baheno
084_0215 haufi le wena kapa ba
084_0216 org wiki wikipedia
084_0217 moralo wa leano la puo
084_0218 phemiti ya ho rafa kapa
084_0219 best supporting actor
084_0220 strategic air command
084_0221 ditaba tse amanang le molao
084_0222 le o mong o na
084_0223 ha ho kgethwa dipuo tseo
084_0224 kapa mokgatlo wa nakwana o
084_0225 efe kapa efe e boletsweng
084_0226 khampani ya ba mmalwa e
084_0227 madison square garden
084_0228 le ho tloswa ha matlakala
084_0229 tikoloho
084_0230 le reng limited le tla
084_0232 hore mobu o na le
084_0233 ya rona ya puo le
084_0234 mesebetsi e itseng ka ho
084_0235 chancellorsville
084_0236 tse ding le tse ding
084_0237 tlasa bolaodi ba mmuso wa
084_0238 tailor
084_0239 tlasa merero e hlwauweng mona
084_0241 borwa e se nang morabe
084_0242 e ne e se e
084_0243 new york jets
084_0244 seahelo sa ho lokisa tlhapi
084_0245 disebediswa tse seng di ile
084_0246 ofisi ya lefapha le haufi
084_0248 ba lakatsang ho sebetsa jwalo
084_0249 dipeo le dipeo tse hlahang
084_0250 e tla fapana ka ho
084_0251 maano a tsona ho latela
084_0252 hoer leano le phethahale bophelong
084_0253 mesebetsi efe ya ho mmaraka
084_0254 jwalo ka ha ho hlokeha
084_0256 protea
084_0257 ya hae ntle ho lebaka
084_0258 e mabapi le maemo a
084_0259 september
084_0260 october
084_0261 ka nngwe e na le
084_0262 ya tshwereng thaetlele kapa monga
084_0263 united states census
084_0264 united states army
084_0265 tshebetso ya botsebi ba saense
084_0266 dingane
084_0267 sa leano la ditekanyetso tsa
084_0268 bad
084_0270 electron transport chain
084_0271 french west africa
084_0272 poone le dinawa tsa soya
084_0273 kofi
084_0274 le hore re tle re
084_0275 lenane la batho ba e
084_0276 la ditaba tsa lehae hore
084_0277 ile wa rekisetswa lefapha la
084_0278 seo o hopotseng ho se
084_0279 kenngwa ha jine ya bt
084_0280 ho suthisa ka ho ya
084_0281 re tsebang ho sebetsa re
084_0282 be bonolo ho palama baesekele
084_0283 fact date march
084_0284 motho ka mong o tlamehile
084_0285 e nang le share capital
084_0286 sa sepolesa sa afrika borwa
084_0287 kgothalletsa ka matla tshebediso ya
084_0288 recreation
084_0289 lekgotla la ho ntshuwa ha
084_0290 motho ya tshwereng thaetlele kapa
084_0291 tlamehile maoto le matsoho ho
084_0292 ba ka tlasa dilemo tse
084_0293 valhalla
084_0295 ho fanwa ka sona ka
084_0296 ho etsa hore naha ya
084_0297 o lokela ho ba motho
084_0298 citation needed april
084_0299 di ka etswa hape le
084_0300 eighty years war
084_0301 ha re sebetsa mmoho re
084_0302 feteng dikgwedi tse tharo kapa
084_0304 tlhahiso ya poone le soneblomo
084_0305 tlwaelo e ke ke ya
084_0306 ha metsi pakeng tsa dikarolwana
084_0307 keketseho thekong ya matjhaba e
084_0308 tsa lekgetho di ka phethahatswa
084_0309 military coup
084_0310 leng le le leng kapa
084_0312 ha puo e lahlehelwa ke
084_0313 potter's
084_0314 nakong eo masimo a tlohetsweng
084_0315 ka ntle ya batlang ho
084_0316 international atomic energy
084_0318 hore ba kgone ho ba
084_0320 e sebetswa letsatsing leo e
084_0321 bragg
084_0322 o okina ahu
084_0323 le hore se sebetsa jwang
084_0325 junior high school
084_0326 provenseng kang ho tla ba
084_0327 mokgwa wa elektroniki kapa khaontareng
084_0328 ya ho lebela ya bopolesa
084_0329 congressional gold medal
084_0330 ba bangata ba ile ba
084_0331 mmalwa le traste ditho tsohle
084_0333 tsitsitseng mmusong maemong le ha
084_0335 bill
084_0336 kgahlanong le dikgoka ho basadi
084_0337 rala mme o romele ditokomene
084_0338 ho tshwarella nako e telele
084_0341 metsimaholo
084_0342 hall
084_0343 convention
084_0344 president george
084_0347 sireletsa le ho matlafatsa botsebi
084_0348 best foreign language
084_0350 e kenella tlase mobung le
084_0351 motho e mong ya nang
084_0352 ya ho tswela pele ha
084_0353 bafta winners people
084_0355 tsosoloso ya boemo ba theshiari
084_0356 tshebetso e etsang hore ho
084_0357 poids et mesures
084_0358 o motsho le o mosweu
084_0359 magnetic resonance imaging
084_0360 tse felletseng tsa moo ho
084_0361 di tswela pele ho sa
084_0363 royal albert hall
084_0365 tla romelwa seteisheneng sa mapolesa
084_0366 lokelang ho fetolelwa bafetoleding ba
084_0367 ho tloha sebopehong sa kgale
084_0368 ya phemiti ya bodulo ba
084_0369 e leng se etsang hore
084_0370 tla kenyeletsa bonyane thuto e
084_0371 e le kgolo ho eo
084_0372 tse ka hodimo tsa mobu
084_0373 fact date august
084_0374 grammatical
084_0375 european economic area
084_0376 sehlopheng sa rona sa tshebetso
084_0377 great lakes region
084_0378 haholo ke moruo wa tsona
084_0379 north west company
084_0381 ho lefa molato wa hao
084_0382 durban
084_0385 bona ba na le tokelo
084_0386 setsi se haufi sa mesebetsi
084_0387 recent common ancestor
084_0388 tlhaho temeng ya saense ya
084_0389 ba teng ha lenaneo la
084_0390 setefikeiti sa boingodiso ba koloi
084_0391 ho etsa kopo ya taelo
084_0392 leng se bolelang hore ho
084_0393 july
084_0394 batsi mabapi le sekgahla sa
084_0397 bao e leng ditho tsa
084_0398 tshebeletso ya poso e sa
084_0399 ya thuso bakeng sa ho
084_0400 system
084_0401 ho tla etswa ho latela
084_0402 etsa boipiletso ho letona la
084_0403 nako e telele ho tiisitse
084_0404 nuclear test ban
084_0407 ditaba tsena di nkilwe thutong
084_0408 phepelo ya dijo tsa polasing
084_0410 strong nuclear force
084_0411 wa afrika borwa ya hlokahetseng
084_0412 good
084_0413 indastering e batsi ya temo
084_0415 ka morero wa ho matlafatsa
084_0416 maseru
084_0417 complaints
084_0418 nelson mandela le thabo mbeki
084_0419 banna le basadi ba na
084_0420 ho se na motho ya
084_0421 se fana ka monyetla o
084_0422 batlang ho etsa kopo ya
084_0423 ho sireletsa le ho matlafatsa
084_0424 average family size
084_0425 la provinse kapa la naha
084_0426 ya ngaka ya diphoofolo ya
084_0427 aterese ya moo o dulang
084_0428 ho se ho kenwe ho
084_0429 mokgatlo o emetseng basebeletsi tumellanong
084_0430 di be tharo mme o
084_0432 baka mathata temong ya dijothollo
084_0433 di na le nako e
084_0434 early church fathers
084_0435 motho ofe kapa ofe a
084_0438 mang ya ka etsang kopo
084_0439 holy hand grenade
084_0441 mabapi le tlhahiso ya koro
084_0442 naha ya afrika borwa ba
084_0443 kamohelo ya ho sebetsa jwalo
084_0444 ke molaodi kakaretso kapa o
084_0446 monroe
084_0447 common law jurisdictions
084_0448 ya saense ya lekgotleng la
084_0450 sapoto jwalo ka ha e
084_0454 new york yankees
084_0455 lebelo la ho potoloha ha
084_0456 fiction television series
084_0457 diprojeke tsa bohlokwa tsa lenaneo
084_0458 bilateral immunity agreement
084_0459 ba lefapha la ditaba tsa
084_0460 wa etsa tshebetso tsa kgwebisano
084_0461 la boemo bo hodimo la
084_0464 le kgonahalo ya hore batho
084_0466 ho tholwa ha ngwana ka
084_0467 ya mobu bakeng sa ntshetsopele
084_0468 lekgotleng la dinyewe ho tla
084_0469 ding le tse ding tse
084_0470 sa witblits se neng se
084_0473 moo motho a fumanang kuno
084_0475 tjhelete ya hae e kenang
084_0476 ka ho lekola tswelopele ya
084_0477 e na le boikarabelo ba
084_0478 ha eba o hloleha ho
084_0479 kopo ya phemiti ya bodulo
084_0481 ka bonyane dipuo tse tsheletseng
084_0482 tlhokeho ya mosebetsi wa ho
084_0483 wa lekgotla la naha la
084_0485 ya kopo ofising e haufi
084_0486 kapa dife tse amanang le
084_0488 award winning authors
084_0489 following world war
084_0490 hlahisa dijothollo di phahame haholo
084_0491 nakwana ke ho thusa balefi
084_0492 hore menyenyetsi e mabapi le
084_0493 se fetileng sa hlabula e
084_0494 butlebutle ka mokgwa o ke
084_0496 boleng ba bophelo ba batho
084_0497 o ile a fana ka
084_0501 mang le a mang a
084_0502 kapa tokomane efe kapa efe
084_0503 kgannelang tlhaselong e eketsehang ya
084_0504 pro football hall
084_0505 wa diphoofolo kapa bolaodi bo
084_0507 phasepoto ya hao ya afrika
084_0508 south
084_0509 merafong le temong bakeng sa
084_0510 ya ditaba tsa lehae kapa
084_0511 kopo e ka se elwe
084_0512 grand
084_0513 e bile wa bohlokwa ho
084_0514 bang ba tlosa pompo pele
084_0516 frank lloyd wright
084_0517 ena ka sepheo sa ho
084_0519 dintho ka mokgwa o sa
084_0520 episcopal church usa
084_0521 hang ha ho se ho
084_0522 american science fiction
084_0524 latela dipehelo tsa molao wa
084_0525 tshwanela ho etsa kopo ya
084_0526 new testament canon
084_0527 nka matsatsi a fihlang ho
084_0528 ikemetseng
084_0529 di ka romelwa ofising efe
084_0530 a hlahisa dikgwebo tsa tsona
084_0531 sena se ka qetella ka
084_0533 station
084_0534 efe kapa efe ya yona
084_0535 weposaeteng ya lefapha la temo
084_0536 ho etsa kopo ya tumello
084_0537 union member states
084_0538 ofisi ya iss ya afrika
084_0539 tsa mokgatlo kapa mokgatlo wa
084_0542 professional american football
084_0543 ho qetela la ho sebetsa
084_0544 hard disk drive
084_0545 larry
084_0547 ho ngodisa setsi sa tlhahlobo
084_0548 sena se tla ba le
084_0549 ya ho ba teng ho
084_0550 high middle ages
084_0551 ka mora nako e itseng
084_0552 war political
084_0553 billy
084_0554 lejwe
084_0555 ya tse romellwang ka ntle
084_0556 british west indies
084_0557 phahameng ya poone le mmaraka
084_0558 ho sebedisa thaere e kgolwanyane
084_0559 ho tswela pele ho ya
084_0561 video game developers
084_0562 ho teng ba bang ba
084_0563 tla ba le seabo se
084_0566 setsheng sa bafu sa poraefete
084_0567 moralo wa tshebetso wa naha
084_0568 ntle mofuta wa hlapi o
084_0569 boramesebetsi ba lokela ho saena
084_0570 ya makgulo bakeng sa kgwebo
084_0571 dubious date april
084_0572 ferry
084_0573 fihlwang ho yona ya mohlahisi
084_0574 dilemong tse ngata tse fetileng
084_0575 pimville
084_0576 motherwell
084_0578 bethal
084_0579 early morning hours
084_0580 ka puo ya kgetho ya
084_0581 valence bond theory
084_0583 kgothalletswa ho ithuta dipuo tse
084_0585 o lokela ho etsa kopo
084_0587 nyetseng nyetsweng eo mohatsae e
084_0589 ho isa ho tse nne
084_0590 dikgopo tsa mahlaku hloohong ya
084_0592 a dintwa tsa ka malapeng
084_0595 e ngata ho feta e
084_0596 ya nka bolelele ba dibeke
084_0597 palestinian national authority
084_0598 re tla dula re ntse
084_0599 catherine
084_0600 republican party united
084_0601 atlantic
084_0602 ha o a dumellwa ho
084_0604 o tshwanetse ho ela hloko
084_0605 a ka nna a fafatswa
084_0606 ho kenyelletswa le ditaba tse
084_0608 sa silafatsa phepelo ya metsi
084_0609 le hore ho tle ho
084_0610 latelang di tla kotjwa bakeng
084_0613 o tshwanetse ho tseba hore
084_0614 mane ho isa ho a
084_0615 ya bt papisong le mekgwa
084_0616 sebediswang wa ho phethola mobu
084_0617 black sea coast
084_0618 dife kapa dife tse amanang
084_0619 samuel's
084_0621 sebokeng sa naha bakeng sa
084_0622 united states dollar
084_0623 ka potlako ka ho ya
084_0624 mokga oo a etsang kopo
084_0625 mananeo a mmuso a ho
084_0626 lefuweng bakeng sa tokelo ya
084_0627 marcel
084_0629 phetoho efe kapa efe e
084_0630 sa moralo wa puo ho
084_0631 ditletlebo
084_0633 test ban treaty
084_0636 west
084_0638 balemi ba ntseng ba thuthuha
084_0639 efe kapa efe eo e
084_0640 poone ya selelekela mabapi le
084_0642 ya naha e tshwereng motho
084_0643 science fiction hall
084_0645 old garden roses
084_0647 khopi e netefaditsweng ya bukana
084_0648 lokela ho phatlalatsa ditokomane hanghang
084_0649 e ne e le sebaka
084_0650 german air force
084_0652 khopi ya rasiti e saennweng
084_0653 dikgeong tsa mesebetsi ya sehlopha
084_0654 temeng ya saense ya lekgotleng
084_0655 sebaka moo sepudutsi se ke
084_0656 hloka tumello e ikgethang e
084_0658 roman catholic archbishops
084_0659 tlhekelo ka letona la bonono
084_0660 tswa dinaheng tsa ka ntle
084_0662 tshwaneleha le moruo wa tshebetso
084_0663 ba thupelo ba lokela ho
084_0664 ho thehwa ha diyuniti tsa
084_0665 united states district
084_0666 ya ngodiso e sa kgutlisweng
084_0667 ya grain sa ya tlhahiso
084_0668 kenya tshebetsong mokgwa wa ho
084_0669 dikgatiso tsa tshebediso ya dipuo
084_0670 old east norse
084_0671 ho tswa ho moabi ya
084_0673 theko ya sehlahiswa le bongata
084_0675 letowana
084_0676 ka mokgwa o hlwahlwa ho
084_0677 ka moo ho ka kgonehang
084_0678 ya naha le ya matjhaba
084_0681 ho tshela oli e ntjha
084_0685 toka le ntshetsopele ya molao
084_0686 tshebediso e phahameng ya sesebediswa
084_0687 western united states
084_0688 phemiti ya ditswantle ya bongaka
084_0689 theko ya oli e tala
084_0690 national public radio
084_0691 re tla sebetsa ka matla
084_0692 rapid economic growth
084_0694 leng hore ha ho hlokehe
084_0695 army occupied cypriot
084_0696 ho fumana kalafo ya bongaka
084_0698 american sign language
084_0699 o be o na le
084_0700 eo e leng karolo ya
084_0701 ancient near east
084_0704 wa batswadi kapa mohlokomedi wa
084_0705 ba teng ka dipuo tse
084_0706 ramolodi
084_0707 molaotheo wa afrika borwa o
084_0710 tshebediso e sa lokang ya
084_0711 tse ntjha tsa ho banka
084_0712 kopo e tlameha ho felehetswa
084_0713 re tla tswela pele ka
084_0714 e na le dimojule tse
084_0715 tshenyo e kgolo dimeleng tse
084_0716 dintlha tsena ka boraro ba
084_0717 ho beha leihlo tshebediso ya
084_0719 tsa theko ya sehlahiswa le
084_0720 le teng ka nako tsohle
084_0721 ho fana ka ditshebeletso tse
084_0722 moo se sa tshwanelang se
084_0723 metsi a ka nnang a
084_0724 tse ka hodimo ho tse
084_0725 tse lokelang ho ba ka
084_0726 jwalo ka ha ho bontshitswe
084_0728 northern mariana islands
084_0729 khampani kapa khampani ya ba
084_0730 south sandwich islands
084_0731 europe music
084_0732 bakeng la tsebo ya mosebetsi
084_0734 bo botjha le ho sebedisa
084_0738 mahola ke sera sa pele
084_0740 tlhekelo
084_0741 le tsela e telele eo
084_0742 ha eba poone e iswa
084_0743 e poraefete ya ho fihlella
084_0744 ena ke e nngwe ya
084_0745 united nations high
084_0746 le ngodisitsweng mona afrika borwa
084_0750 ikopanye le ofisi ya lefapha
084_0752 islamic conference oic
084_0753 ya tlhahisoleseding tshebetsong ya toka
084_0754 tswela pele ka lenaneo la
084_0756 ya hao ya boitsebiso kapa
084_0757 ke sesebediswa se sebetsang ka
084_0758 wa seboka sa naha le
084_0759 motheo
084_0760 thibelang lefu ka mora ketsahalo
084_0761 president harry
084_0762 nebula award winning
084_0764 foromo ya kopo ka dikopi
084_0765 ba hore khopi ya foromo
084_0766 nobel prize winners
084_0767 rephaboliki
084_0768 united states began
084_0769 kapa ho hloka bokgoni ba
084_0770 london
084_0771 ho bohlokwa ka ho fetisisa
084_0772 motho ofe kapa ofe eo
084_0773 ho fela ho potlakileng ha
084_0774 boston red sox
084_0775 haufi tsa ntshetsopele ya setjhaba
084_0776 boafrika borwa ba rona bo
084_0777 ha ho ne ho ena
084_0778 tlameha ho felehetsa kopo ka
084_0779 ho ngodisa khampani e poraefete
084_0780 state university alumni
084_0782 ho kganna ya borutehi bo
084_0783 sa ntsaneng a le manyane
084_0784 moo e leng hore ho
084_0786 ka baka la sephetho se
084_0787 western united states
084_0788 grain sa ya tlhahiso ya
084_0791 etsa kopo bakeng sa phemiti
084_0792 masimo a mang le a
084_0795 united states declaration
084_0796 ho ntlafatsa boleng ba bophelo
084_0797 kopo ya bodulo ba saruri
084_0798 tumellano ya nakwana le seng
084_0799 tla neha ba leloko sebaka
084_0801 diporofensi di a nahanwa boemong
084_0803 ho bonahala eka ha ho
084_0804 transvala
084_0805 morao ka dilemo tse ngata
084_0806 mekgatlo e adimanang ka tjhelete
084_0807 game boy advance
084_0808 american free trade
084_0809 la nakwana le lokelwang ho
084_0810 ba bolaodi ba bophelo bo
084_0811 pele ho ka jalwa sejothollo
084_0812 ludwig von mises
084_0813 itseng ntle le ho ama
084_0814 le kgahleho bophelong ba motletlebi
084_0815 ho etsa diteko tsa hiv
084_0816 random access memory
084_0817 ho fafatsa kgahlanong le mahola
084_0818 ka rakonteraka o na le
084_0819 lengolo la tumello haeba o
084_0820 mona afrika borwa e lokelwa
084_0821 states district court
084_0822 leng la mahlakore ana a
084_0823 a kopane le nako eo
084_0824 ka kamano ya ho se
084_0826 ho feta ka moo ho
084_0827 di fetwa ka bohlwahlwa ke
084_0828 royal dutch shell
084_0830 ya tlhaselo e eso fihle
084_0831 e tiiseditsweng ha ditokomane di
084_0832 bolaodi bo ka bonang e
084_0833 ho thola ngwana ka molao
084_0834 nang le tokelo ya ho
084_0836 park
084_0837 kiana
084_0838 moahi wa afrika borwa kapa
084_0839 tsa palamente di tlameha ho
084_0840 european union member
084_0842 ice hockey team
084_0844 kopanelo ya boitshwaro bo botle
084_0845 matsatsi a leshome eo ka
084_0846 kapa o tshwerwe tlasa mental
084_0847 new york jets
084_0848 kapa badudi ba saruri ba
084_0849 hloka bokgoni ba ho phetha
084_0850 wa provinse ya bophelo bo
084_0851 eldorado
084_0852 george
084_0856 ho mokga o laolang wa
084_0857 le haebe ho boletswe ka
084_0858 afrika borwa jwalo ka ha
084_0859 le nngwe feela afrika borwa
084_0861 islamic conference oic
084_0862 make extensive use
084_0863 african unity oau
084_0864 osama bin laden
084_0865 moya wa ho etsa dintho
084_0866 romela ka mora nako ditlaleho
084_0867 boyce
084_0868 kopo ya hao e se
084_0869 tshwaneleha ka mora nako e
084_0870 close air support
084_0871 gcis e ka fana ka
084_0872 states unemployment rate
084_0873 ya foromo ena e fuwe
084_0874 ho ya ka palo ya
085_0002 german democratic republic
085_0003 ho tjheswa le ho kgutliswa
085_0009 ho hlwaya tefo ya hao
085_0010 mister
085_0013 marble
085_0014 american film producers
085_0021 a mmalwa ho ya dibekeng
085_0023 day saint movement
085_0026 guru granth sahib
085_0028 real gdp growth
085_0031 rugby union team
085_0032 cold war era
085_0036 tekolo botjha ya ditlwaelo le
085_0037 iran iraq war
085_0039 ludwig von mises
085_0040 missing living people
085_0044 ya seteraeke kapa ho notlellwa
085_0048 cosmic microwave background
085_0051 pope urban
085_0052 abdur rahman khan
085_0054 tefiso e balletsweng ya ngodiso
085_0058 ke e nngwe ya dintlha
085_0061 ho tsamaya sebakeng seo feberu
085_0064 kapa ho toloka moo ho
085_0065 tshilafatso kapa tshenyo e sa
085_0066 ba eba siyo lebatoweng leo
085_0067 hore ho teng balemi ba
085_0075 native american tribes
085_0076 provincial
085_0077 american football conference
085_0079 selemo sa ditjhelete se felang
085_0082 ho na le ditsela tse
085_0087 dikarolong tsa yona tsa metso
085_0091 free software programmed
085_0093 rugby union team
085_0101 abednego
085_0105 tlameha ho tlatswa ke mokopi
085_0116 lengolo la bopaki la phytosanitary
085_0120 international criminal court
085_0131 setifikeiti sa tlhakiso sa sepolesa
085_0132 president woodrow wilson
085_0133 le haufi le la sars
085_0134 lebitso la seteishene sa mapolesa
085_0137 guano islands act
085_0142 eo ho fihlwang ho yona
085_0143 form hydrogen bonds
085_0144 a fana ka puo ya
085_0145 tla amohelwa jwalo ka setswantle
085_0147 afidaviti eo ho entsweng kano
085_0148 metsi a mangata hoo tse
085_0149 john von neumann
085_0158 essential fatty acids
085_0160 treaty organization nato
085_0162 education
085_0163 civil class
085_0164 o ka nna wa fafatsa
085_0165 failed verification date
085_0168 partially ordered set
085_0172 power parity comparisons
085_0173 e mong le e mong
085_0175 richmond
085_0176 wayne state university
085_0178 lokela ho fuwa tlhompho e
085_0187 harvard university people
085_0188 e nngwe e tshwanang le
085_0189 david
085_0190 hore ditho tsa palamente di
085_0191 sherman's
085_0193 trade
085_0194 national park service
085_0196 tlhokeho ya taolo ya dikokwanyana
085_0197 na le boikarabelo mabapi le
085_0198 ya moithuti e le yona
085_0201 belfast
085_0202 riverside
085_0205 qhalanya tjhefo ena diforong tsa
085_0206 international financial institutions
085_0207 botlhokong
085_0210 disebediswa tse fapaneng tsa ho
085_0215 american airlines flight
085_0217 mtv video music
085_0219 leibole ya sebolayakokwanyana seo o
085_0222 ho hloleha ho etsa jwalo
085_0228 american short story
085_0230 ho teng dintlha tse mmalwa
085_0234 foromo ya tlaleho ya ditletlebo
085_0236 bo ikemetseng ba ditletlebo e
085_0238 central processing unit
085_0239 itshebetsang puong jwalo ka bafetoledi
085_0241 le ho kenya tshebetsong ditshisinyo
085_0244 football league teams
085_0246 e ke ke ya feta
085_0247 presidential representative democratic
085_0250 ditokelo tsa bamedisi ba dimela
085_0251 sebokonyana se ntseng se hola
085_0254 a etsa qeto ya ho
085_0255 kutu
085_0256 di fapana ho ya ka
085_0257 ntshetsopele ya molemi wa grain
085_0258 social democratic parties
085_0260 elections took place
085_0261 ho fetola lefapha la ditaba
085_0262 ya taelo ya semolao ya
085_0264 kansas state university
085_0265 tshebetso ya ho fetola se
085_0272 atlantic slave trade
085_0273 sefe kapa sefe sa mapolesa
085_0279 lokela ho tlatswa ke bajalefa
085_0281 kgwebo
085_0286 le thibelo ya kgethollo e
085_0288 la ho qetela la ho
085_0289 greek orthodox church
085_0290 american musical theatre
085_0292 mokopi o na le ditjhelete
085_0293 ya hao setatementeng sa banka
085_0296 dutton
085_0297 grammy lifetime achievement
085_0299 province
085_0300 declared martial law
085_0301 vector space
085_0302 ditlhapiso bakeng sa dikotsi le
085_0303 major league baseball
085_0308 hlahiswa e bongata bo bokae
085_0309 bakeng sa ho fana ka
085_0310 clive
085_0311 le e nngwe ya tsona
085_0312 pele ho ngodiso ho ya
085_0313 statistik provisionally valued
085_0322 chinese civil war
085_0323 ridgeway
085_0329 ivy
085_0333 duncan
085_0334 tse nyenyane le tse mahareng
085_0335 american film directors
085_0338 united states relations
085_0341 united states federal
085_0342 mokakawe
085_0343 saint lawrence river
085_0344 n g rjuna
085_0345 american sign language
085_0349 tshenyo e kgolo dimeleng tse
085_0352 melbourne football club
085_0361 music awards winners
085_0368 a sa siya wili e
085_0376 transvala
085_0378 ice hockey team
085_0380 war political
085_0383 eldorado
085_0387 close air support
085_0389 box office success
085_0400 park
085_0404 seetebosigo
085_0406 pope benedict
085_0412 station
085_0414 ena ke e nngwe ya
085_0415 ho tshela oli e ntjha
085_0421 george
085_0423 aung san suu
085_0424 mang le a mang a
085_0425 samuel's
085_0431 ka nna a ba le
085_0441 atlantic
085_0447 ramolodi
085_0448 marcel
085_0449 black sea coast
085_0450 reef
085_0451 ho isa ho tse nne
085_0454 west
085_0464 hong kong island
085_0466 management
085_0468 south
085_0488 leo mobu o leng ho
085_0500 hang ha ho se ho
085_0502 tse seng di ile tsa
085_0504 mme ho tla ya ka
085_0513 le hore ho tle ho
085_0515 religious
085_0516 re tla dula re ntse
085_0518 fact date july
085_0519 toka
085_0521 ho teng ba bang ba
085_0525 new york jets
085_0534 ha ho ne ho ena
085_0536 batshwaruwa
085_0542 royal dutch shell
085_0551 boyce
085_0563 ho ya ka palo ya
085_0570 ludwig von mises
085_0573 meade
085_0594 europe music
085_0597 hauhelele
085_0601 ho tla nne ho dule
085_0610 lejwe
085_0614 gcis e ka fana ka
085_0626 leondale
085_0630 ditletlebo
085_0633 london
085_0637 ya ho ba teng ho
085_0642 motherwell
085_0646 tlhekelo
085_0647 garrick
085_0648 grand
085_0650 knights grand cross
085_0662 bethal
085_0664 extension
085_0669 ikemetseng
085_0688 monyakeng
085_0697 grisly
085_0742 metsi a ka nnang a
085_0829 dennilton
085_0872 duncan
085_0877 democratic
085_0891 rock music groups
085_0898 civil class
085_0899 kutu
085_0907 e batlang e le ntle
085_0909 langton
085_0922 abednego
085_0927 ke hore ha eba o
085_0928 hang ha a se a
085_0943 clive
085_0945 ivy
085_0953 trade
085_0955 edwin
085_0957 lady
085_0969 empa re ke ke ra
085_0982 cell lung carcinoma
085_0989 mister
085_0996 metsotso
085_1010 camp david accords
085_1017 ridgeway
085_1025 leng la mmuso le provenseng
085_1027 botlhokong
085_1029 states presidential candidates
085_1030 ke ho fihlela ho latelang
085_1035 chinese civil war
085_1036 ba eba siyo lebatoweng leo
085_1038 blacksash
085_1041 constitution of the republic of
085_1045 san pedro sula
085_1048 le ho kenya tshebetsong ditshisinyo
085_1057 riverside
085_1058 ya jwalo ha se mang
085_1064 tla amohelwa jwalo ka setswantle
085_1067 ho ithuta dipuo tse ding
085_1068 vector space
085_1070 tsa boholo bo sebediswang phasepotong
085_1071 ba ne ba atisa ho
085_1072 central processing unit
085_1074 clarify date november
085_1075 ditherisano tse kopanetsweng ke basebetsi
085_1076 sherman's
085_1077 ho ya ka dipehelo tsa
085_1078 german air force
085_1079 tsa tsebo tse hlokahalang ho
085_1080 ya ho ngodisa setsi sa
085_1083 partially ordered set
085_1084 le dimela mabapi le mongobo
085_1087 major political parties
085_1092 ditokelo tsa bamedisi ba dimela
085_1094 grammy lifetime achievement
085_1096 selemo sa ditjhelete se felang
085_1098 italian roman catholics
085_1100 ya hao setatementeng sa banka
085_1102 masimo e bontsha matshwao a
085_1103 democratic labour party
085_1104 treaty organization nato
085_1106 bohlokwa ka ho fetisisa e
085_1111 new prime minister
085_1112 na le tshepo ya hore
085_1113 institjhute
085_1116 ya ho fana ka beile
085_1117 etsa hore ho be teng
085_1121 free software programmed
085_1122 la dithuto la afrika borwa
085_1125 re batla ho tswela pele
085_1126 tekolo botjha ya ditlwaelo le
085_1127 missing living people
085_1128 thuto ya kalafo ya tsa
085_1130 atlantic slave trade
085_1131 rugby union team
085_1132 selemo ho ya ka mm
085_1134 mong le e mong polasing
085_1135 nang le tse ngata tse
085_1142 saint lawrence river
085_1143 boemong bo hodimo bakeng la
085_1144 form hydrogen bonds
085_1145 david
085_1148 naha ya habo rona e
085_1152 reactive oxygen species
085_1153 dipehelo tsa leano di ka
085_1154 international criminal court
085_1155 bonaparte
085_1156 mokopi o na le ditjhelete
085_1157 o le moahi wa afrika
085_1158 puo ya hore tshebediso ya
085_1159 declared martial law
085_1162 national park service
085_1163 wayne state university
085_1165 diphaphosing tsa borutelo ka nako
085_1166 ho tjheswa le ho kgutliswa
085_1169 laolla foromo ya kopo ho
085_1174 e ke ke ya feta
085_1175 presidential representative democratic
085_1176 lokela ho fuwa tlhompho e
085_1178 social democratic parties
085_1180 tsa ho iteanya le motho
085_1182 merero e ntlafaditsweng ya tlhahiso
085_1183 ya afrika borwa ba dilemo
085_1187 greek orthodox church
085_1188 hopola hore re kgona ho
085_1189 gross domestic product
085_1193 united states relations
085_1194 guru granth sahib
085_1197 ludwig von mises
085_1198 etsa hore o kgone ho
085_1199 folaga e ntle ka ho
085_1200 sehlopha sa tshebetso sa moralo
085_1202 le tlhokeho e potlakileng ya
085_1203 province
085_1204 ditlhapiso bakeng sa dikotsi le
085_1206 ka ho nka disampole tsa
085_1207 european central bank
085_1210 american airlines flight
085_1212 di tla lokela hore di
085_1214 halleck
085_1222 john von neumann
085_1227 n g rjuna
085_1228 qhamakwane
085_1229 badudi ba saruri ba batlang
085_1234 ntshetsopele ya molemi wa grain
085_1235 higher education institutions
085_1236 dutton
085_1237 supreme court justice
085_1238 richmond
086_0001 great lakes region
086_0004 ho lefa molato wa hao
086_0006 following world war
086_0007 hlahisa dijothollo di phahame haholo
086_0009 mesebetsi e itseng ka ho
086_0010 bad
086_0011 wa etsa tshebetso tsa kgwebisano
086_0012 red blood cells
086_0013 congressional gold medal
086_0014 bao e leng ditho tsa
086_0015 hoer leano le phethahale bophelong
086_0016 mme re tshepa hore moya
086_0018 mang ya ikemiseditseng ho nehelana
086_0019 harry
086_0021 kgahlanong le dikgoka ho basadi
086_0023 la ditaba tsa tikoloho le
086_0024 moralo wa leano la puo
086_0025 mabapi le sehla se tlang
086_0027 e tla fapana ka ho
086_0029 boleng ba bophelo ba batho
086_0030 ho ntsha raporoto ya radiology
086_0031 mabapi le ho sebedisa poone
086_0032 afrika borwa ba leng mose
086_0033 hore ba kgone ho ba
086_0034 lekgotleng la dinyewe ho tla
086_0037 ka tsela e ke keng
086_0041 dikarolo dife kapa dife tse
086_0042 etsa hore balemi ba kgone
086_0043 moscow state university
086_0044 phemiti ya ho rafa kapa
086_0045 dipuo tsa afrika borwa tsa
086_0046 metsimaholo
086_0047 tse ding le tse ding
086_0048 ha eba poone e sa
086_0049 seng le lefilwe bakeng sa
086_0050 television shows set
086_0053 french west africa
086_0054 new york jets
086_0055 american jewish people
086_0057 ha eba o hloleha ho
086_0059 dingane
086_0060 kgothalletsa ka matla tshebediso ya
086_0061 ke molaodi kakaretso kapa o
086_0062 e mabapi le maemo a
086_0063 e nang le share capital
086_0065 e fuwa baahi ba naha
086_0066 ke ke wa kgona ho
086_0067 maano a tsona ho latela
086_0068 feteng dikgwedi tse tharo kapa
086_0070 award winning authors
086_0071 american male singers
086_0073 strategic air command
086_0074 ho se na motho ya
086_0075 mabapi le tlhahiso ya koro
086_0076 sebetsa jwalo ka borasaense ba
086_0077 hartbeespoort
086_0078 ho ba teng ha lenaneo
086_0079 supreme allied commander
086_0080 armoured fighting vehicles
086_0081 saense ya tlhaho dikri diploma
086_0083 a ka nna a baka
086_0086 tlhaho temeng ya saense ya
086_0087 se fana ka monyetla o
086_0088 ya ho ba teng ha
086_0089 tsa tokisetso tsa lekgetho di
086_0092 butlebutle ka mokgwa o ke
086_0093 seo a lokelang ho se
086_0095 hore ho na le tshebetso
086_0096 re tsebang ho sebetsa re
086_0097 ha metsi pakeng tsa dikarolwana
086_0098 di ka etswa hape le
086_0099 ya poso e sa risefuwang
086_0100 ho tla etswa ho latela
086_0101 red blood cells
086_0102 gibbon
086_0104 ho sireletsa le ho matlafatsa
086_0109 nakwana ke ho thusa balefi
086_0110 kamohelo ya ho sebetsa jwalo
086_0111 la provinse kapa la naha
086_0112 south asian association
086_0115 man
086_0116 power parity comparisons
086_0118 national science foundation
086_0119 e ya ho lefapha la
086_0120 maseru
086_0123 ho hlokeha lengolo la tumello
086_0124 nuclear test ban
086_0126 electron transport chain
086_0131 argentina ho ya afrika borwa
086_0132 le ho tempuwa ke mosebeletsi
086_0134 foreign direct investment
086_0135 balemi ba batjha ba ka
086_0137 buddhism
086_0138 empire
086_0139 army air corps
086_0140 tlamehile maoto le matsoho ho
086_0142 e le kgolo ho eo
086_0143 hodimo ho moo ba tla
086_0145 common law jurisdictions
086_0146 lokile pele o etsa kopo
086_0148 kopo ya setefikeiti sa ho
086_0150 ding le tse ding tse
086_0151 sehlopheng sa rona sa tshebetso
086_0152 poids et mesures
086_0153 ka ntle ya batlang ho
086_0154 phethahatso ya leano lena e
086_0155 military coup
086_0157 european economic area
086_0158 states environmental protection
086_0159 dineo
086_0161 ho tshwarella nako e telele
086_0163 neelane ka kopo ya hao
086_0164 human development index
086_0165 mokgwa wa elektroniki kapa khaontareng
086_0167 sam
086_0169 eo re neng re e
086_0171 ya sefafatsi se fatshe sa
086_0172 october
086_0173 le reng limited le tla
086_0174 hangata a na le metso
086_0175 tlhahiso ya poone le soneblomo
086_0177 tlhokeho ya mosebetsi wa ho
086_0179 high seas fleet
086_0181 setifikeiti sa tswalo sa afrika
086_0182 ya kopo ofising e haufi
086_0183 national hockey league
086_0184 fifa world cup
086_0186 formal diplomatic relations
086_0187 disebediswa tse seng di ile
086_0188 mokgatlo o emetseng basebeletsi tumellanong
086_0189 screen actors guild
086_0190 poone le dinawa tsa soya
086_0191 royal albert hall
086_0192 leqephe la pele la foromo
086_0194 la afrika borwa la basebetsi
086_0195 african
086_0196 potter's
086_0197 chancellorsville
086_0199 efe kapa efe eo ho
086_0201 north germanic languages
086_0205 president george
086_0208 bakeng sa nako e kgutshwane
086_0213 le ho romela ditokomane ho
086_0216 monroe
086_0218 o okina ahu
086_0219 magnetic resonance imaging
086_0220 mahareng a phato ho fihlela
086_0224 taolo ka dikhemikhale le mefuta
086_0227 ba ngodise ho south african
086_0230 baahi ba afrika borwa kapa
086_0238 durban
086_0241 palestine liberation organization
086_0244 science fiction novel
086_0245 numeric character references
086_0250 o ile a fana ka
086_0255 tswela pele ka mokgwa wa
086_0257 sa witblits se neng se
086_0264 central
086_0269 supreme court ruled
086_0270 citation needed april
086_0274 lefapheng la kgwebo le indasteri
086_0275 provenseng kang ho tla ba
086_0276 tailor
086_0277 randfontein
086_0282 ya ho lebela ya bopolesa
086_0284 ka ba ka mokgwa wa
086_0285 golden globe winners
086_0288 ntswaki
086_0290 eighty years war
086_0291 a diphoofolo tsa afrika borwa
086_0294 lebelo la ho potoloha ha
086_0295 good
086_0298 lekgotla la ho ntshuwa ha
086_0302 law enforcement agencies
086_0303 ho tloha sebopehong sa kgale
086_0304 john
086_0305 ditaba tsena di nkilwe thutong
086_0307 kapa hofe ho ka bang
086_0309 ya ho tswela pele ha
086_0312 mesebetsi efe ya ho mmaraka
086_0314 haholo ke moruo wa tsona
086_0316 tsa lekgetho di ka phethahatswa
086_0317 ya etsang kopo ya tokomane
086_0319 tlwaelo e ke ke ya
086_0321 strong nuclear force
086_0322 hospital
086_0324 miller's
086_0325 saint john river
086_0327 jwalo ka ha ho hlokeha
086_0328 average family size
086_0329 rala mme o romele ditokomene
086_0330 o ne a atisa ho
086_0331 randburg
086_0332 history
086_0333 le hore re tle re
086_0338 batho
086_0339 tse felletseng tsa moo ho
086_0344 bakeng sa morwalo o mong
086_0346 ofisi ya lefapha le haufi
086_0347 madison square garden
086_0348 international atomic energy
086_0354 hall
086_0355 ho kenngwa tshebetsong ha melao
086_0359 ho suthisa ka ho ya
086_0360 proffesor
086_0361 ho etsa kopo ya taelo
086_0362 russian civil war
086_0363 moahi wa naha ya afrika
086_0364 ho behela taelo ka thoko
086_0365 midrand
086_0366 cathode ray tube
086_0368 ntshetsopele ya dipeo tsa oli
086_0370 bilateral immunity agreement
086_0373 bragg
086_0374 ka ho lekola tswelopele ya
086_0376 san francisco giants
086_0377 bafta winners people
086_0380 motho e mong ya nang
086_0381 lokelang ho fetolelwa bafetoleding ba
086_0382 haufi le wena kapa ba
086_0383 nakong eo masimo a tlohetsweng
086_0384 system
086_0385 bona ba na le tokelo
086_0386 o tshwanetse ho ba le
086_0390 motho ka mong o tlamehile
086_0392 american film producers
086_0393 best foreign language
086_0394 etsa boipiletso ho letona la
086_0395 l cuin abbr
086_0396 ho fanwa ka sona ka
086_0397 bridgeport
086_0399 protea
086_0401 mahola e tshwanetse ho etswa
086_0404 original game boy
086_0406 wa afrika borwa ya hlokahetseng
086_0409 primitive recursive functions
086_0410 big bang model
086_0411 bill
086_0413 nelson mandela le thabo mbeki
086_0414 court ha e le traste
086_0416 le o mong o na
086_0417 karolong e ka tlase ya
086_0418 junior high school
086_0420 ya taelo ya tshireletso ya
086_0421 bay
086_0422 org wiki wikipedia
086_0423 van der waals
086_0424 american psychiatric association
086_0425 fiction television series
086_0426 ba bangata ba ile ba
086_0427 united states president
086_0428 nfc championship game
086_0430 ka morero wa ho matlafatsa
086_0431 convention
086_0432 tsa taolo ka dikhemikhale le
086_0433 tla kenyeletsa bonyane thuto e
086_0434 new york yankees
086_0435 kenngwa ha jine ya bt
086_0437 tse phahameng tsa taolo ka
086_0444 recent common ancestor
086_0445 be bonolo ho palama baesekele
086_0446 tsebisa ka ho o ngolla
086_0449 internet protocol suite
086_0450 tla tshwarwa ka mokgwa o
086_0453 free methodist church
086_0454 recreation
086_0455 pholisi ya naha ya batjha
086_0456 environmental protection agency
086_0457 madison square garden
086_0461 ho na le mefuta e
086_0462 seo o hopotseng ho se
086_0463 ka mokgwa o nepahetseng nakong
086_0466 indastering e batsi ya temo
086_0468 modern orthodox judaism
086_0469 tokomane eo o batlang ho
086_0470 early church fathers
086_0471 ha ho kgethwa dipuo tseo
086_0472 articles including recorded
086_0473 golden globe film
086_0475 grammatical
086_0477 tsa larvae hammoho le mahe
086_0478 southwestern united states
086_0483 federal trade commission
086_0484 ya tumello ya ho romela
086_0485 senyesemane
086_0486 ba ka hodimo ho dilemo
086_0487 best supporting actor
086_0488 ya phemiti ya bodulo ba
086_0489 ho tshwasa ka palo e
086_0490 tla romelwa seteisheneng sa mapolesa
086_0491 tlhahiso ya poone le mmaraka
086_0492 moo ho ipehilweng ka tsela
086_0494 ka mokgwa o sa tlwaelehang
086_0495 ozone layer protection
086_0496 motho a tshwerweng ho yona
086_0498 feta pele hore ho na
086_0499 ya ho tsamaisa tshebeletso ya
086_0500 re tla sebetsa ka matla
086_0502 merafong le temong bakeng sa
086_0505 clarify date february
086_0506 tsa lehae provinseng eo o
086_0507 animated television series
086_0508 liberal arts college
086_0509 thibelang lefu ka mora ketsahalo
086_0510 ho beha leihlo tshebediso ya
086_0511 ikopanye le ofisi ya lefapha
086_0512 kopo e tlameha ho felehetswa
086_0513 o tshwanetse ho ela hloko
086_0516 ya nka bolelele ba dibeke
086_0518 ena ke e nngwe ya
086_0522 la ho qala la nakwana
086_0523 ya ditaba tsa lehae kapa
086_0524 nebula award winning
086_0526 south sandwich islands
086_0527 ho etsa kopo ya tumello
086_0528 ho fumana kalafo ya bongaka
086_0531 moo se sa tshwanelang se
086_0532 ba thupelo ba lokela ho
086_0533 ho teng ba bang ba
086_0534 united states district
086_0535 ho sebedisa lebitso le molaong
086_0536 leng hore ha ho hlokehe
086_0537 general public license
086_0538 re tla dula re ntse
086_0539 open source initiative
086_0541 e ngata ho feta e
087_0001 tlasa merero e hlwauweng mona
087_0005 bad
087_0006 lekgotleng la dinyewe ho tla
087_0015 e ntshitsweng ke bolaodi bo
087_0016 award winning authors
087_0021 golden globe winners
087_0024 e tswang ho registrar of
087_0033 national hockey league
087_0034 modern orthodox judaism
087_0040 internet protocol suite
087_0041 tailor
087_0045 ho behela taelo ka thoko
087_0046 human development index
087_0047 midrand
087_0048 di tswela pele ho sa
087_0050 borwa e se nang morabe
087_0051 ho ntsha raporoto ya radiology
087_0052 tsa larvae hammoho le mahe
087_0053 original game boy
087_0059 bridgeport
087_0060 randburg
087_0069 convention
087_0070 etsa hore balemi ba kgone
087_0074 tswa ho monga setsha seo
087_0075 united states census
087_0079 ya tumello ya ho romela
087_0082 boqwabi
087_0083 gibbon
087_0094 new york yankees
087_0095 cathode ray tube
087_0098 tlhahiso e tswetseng pele ya
087_0099 roman catholic priests
087_0101 dingane
087_0104 protea
087_0105 e ya ho lefapha la
087_0106 kopi e tiiseditsweng ya bukana
087_0107 following world war
087_0109 maano a tsona ho latela
087_0111 etsa kopo ya ho ngodisa
087_0113 mang ya ikemiseditseng ho nehelana
087_0114 mang ya ka etsang kopo
087_0115 poids et mesures
087_0117 free methodist church
087_0123 ka ho lekola tswelopele ya
087_0125 kamohelo ya ho sebetsa jwalo
087_0127 military coup
087_0129 harry
087_0130 centrally planned economy
087_0132 ho lefa molato wa hao
087_0140 president george
087_0141 le hore re tle re
087_0143 nelson mandela le thabo mbeki
087_0145 lekgotla la ho ntshuwa ha
087_0146 hore ditokomane tsa mmuso ha
087_0147 recreation
087_0150 naha ya afrika borwa ba
087_0152 makgoweng
087_0157 senyesemane
087_0161 san francisco giants
087_0164 hartbeespoort
087_0165 great lakes region
087_0166 fiction television series
087_0167 environmental protection agency
087_0168 big bang model
087_0169 ba ka hodimo ho dilemo
087_0170 nfc championship game
087_0174 african
087_0175 e tlang tse mabapi le
087_0176 states environmental protection
087_0178 ka ntle ya batlang ho
087_0180 ha fela ho sa ntse
087_0184 fact date august
087_0185 electron transport chain
087_0190 palestine liberation organization
087_0192 man
087_0193 early church fathers
087_0195 ka ba ka mokgwa wa
087_0199 indastering e batsi ya temo
087_0205 complaints
087_0207 screen actors guild
087_0208 best foreign language
087_0209 nakwana ke ho thusa balefi
087_0211 average family size
087_0213 united states president
087_0218 strategic air command
087_0220 church turing thesis
087_0222 leng le le leng kapa
087_0226 eo re neng re e
087_0227 ba ngodise ho south african
087_0228 hore ho na le tshebetso
087_0229 bay
087_0232 hlahisa dijothollo di phahame haholo
087_0234 tokomane eo o batlang ho
087_0240 armoured fighting vehicles
087_0243 haholo ke moruo wa tsona
087_0247 bilateral immunity agreement
087_0250 ho suthisa ka ho ya
087_0252 e fumaneha ka potlako weposaeteng
087_0253 numeric character references
087_0254 october
087_0255 mesebetsi efe ya ho mmaraka
087_0259 russian civil war
087_0260 european economic area
087_0261 foreign direct investment
087_0267 van der waals
087_0268 ka mokgwa o hlakileng ho
087_0269 international atomic energy
087_0271 hangata a na le metso
087_0272 french west africa
087_0274 new york jets
087_0275 holy hand grenade
087_0279 best supporting actor
087_0282 bafta winners people
087_0283 primitive recursive functions
087_0286 red blood cells
087_0290 wa afrika borwa ya hlokahetseng
087_0292 common law jurisdictions
087_0293 bill
087_0295 hall
087_0296 articles including recorded
087_0301 north germanic languages
087_0308 l cuin abbr
087_0310 metsimaholo
087_0313 motho a tshwerweng ho yona
087_0320 royal albert hall
087_0321 national science foundation
087_0322 org wiki wikipedia
087_0323 proffesor
087_0324 american male singers
087_0325 bao e leng ditho tsa
087_0326 e leng se etsang hore
087_0331 nuclear test ban
087_0335 national football team
087_0337 september
087_0340 system
087_0344 strong nuclear force
087_0345 moahong wa lekgotla la naha
087_0347 maseru
087_0348 keketseho thekong ya matjhaba e
087_0349 mme hona ho tla ya
087_0350 empire
087_0351 afrika borwa ba leng mose
087_0352 lefapheng la kgwebo le indasteri
087_0353 e sebetswa letsatsing leo e
087_0354 magnetic resonance imaging
087_0358 science fiction novel
087_0360 madison square garden
087_0361 ya hae ntle ho lebaka
087_0365 tse felletseng tsa moo ho
087_0367 ha eba o hloleha ho
087_0369 citation needed april
087_0372 law enforcement agencies
087_0375 junior high school
087_0377 le reng limited le tla
087_0381 monroe
087_0383 ozone layer protection
087_0390 american psychiatric association
087_0395 madison square garden
087_0396 provenseng kang ho tla ba
087_0399 high seas fleet
087_0405 ho se ho kenwe ho
087_0406 buddhism
087_0408 recent common ancestor
087_0412 supreme allied commander
087_0413 setsi se haufi sa mesebetsi
087_0419 congressional gold medal
087_0420 fifa world cup
087_0422 chancellorsville
087_0424 motor vehicle manufacturers
087_0425 american jewish people
087_0426 randfontein
087_0429 sam
087_0432 ya ho lebela ya bopolesa
087_0433 federal trade commission
087_0435 golden globe film
087_0436 good
087_0438 ka mora kotulo ya koro
087_0441 red blood cells
087_0444 power parity comparisons
087_0449 ka tsela e ke keng
087_0450 sa witblits se neng se
087_0454 south asian association
087_0456 nako e telele ho tiisitse
087_0457 saint john river
087_0461 rala mme o romele ditokomene
087_0463 television shows set
087_0464 balemi ba batjha ba ka
087_0470 tlhokomelo mabapi le tshebediso e
087_0471 ka mokgwa o nepahetseng nakong
087_0473 ho se na motho ya
087_0474 moscow state university
087_0478 le ho tempuwa ke mosebeletsi
087_0479 north west company
087_0484 seo a lokelang ho se
087_0487 tla romelwa seteisheneng sa mapolesa
087_0490 fact date march
087_0491 supreme court ruled
087_0494 kapa hofe ho ka bang
087_0498 united states geological
087_0499 durban
087_0506 united states district
088_0001 ya thuso bakeng sa ho
088_0002 ntate wa ngwana ya tswetsweng
088_0007 american jewish people
088_0008 national hockey league
088_0013 o motsho le o mosweu
088_0016 complaints
088_0019 golden globe winners
088_0022 dingane
088_0023 award winning authors
088_0025 african
088_0027 best supporting actor
088_0029 manejara wa lebatowa a ananela
088_0031 history
088_0032 sam
088_0034 southwestern united states
088_0037 congressional gold medal
088_0040 ditho tsa palamente ha di
088_0042 moscow state university
088_0044 cathode ray tube
088_0045 madison square garden
088_0047 e ne e se e
088_0049 mabitso a bonkgetheng bakeng sa
088_0052 akhaonteng e latelang ya banka
088_0053 science fiction novel
088_0054 red blood cells
088_0055 internet protocol suite
088_0058 laesense ya boditjhaba ya ho
088_0063 united states senate
088_0065 ya rona ya puo le
088_0066 ho ba teng ha lenaneo
088_0067 best foreign language
088_0070 argentina ho ya afrika borwa
088_0072 european economic area
088_0074 san francisco giants
088_0076 american film producers
088_0079 television shows set
088_0081 foreign direct investment
088_0083 international atomic energy
088_0086 saint john river
088_0087 ba bangata ba nang le
088_0091 fact date august
088_0093 eighty years war
088_0095 miller's
088_0096 fact date march
088_0099 poone le dinawa tsa soya
088_0101 le hore se sebetsa jwang
088_0102 ya tshwereng thaetlele kapa monga
088_0104 baheno
088_0108 armoured fighting vehicles
088_0111 system
088_0113 man
088_0114 russian civil war
088_0118 mabapi le mefuta e metle
088_0120 red blood cells
088_0122 madison square garden
088_0125 hartbeespoort
088_0126 o okina ahu
088_0127 kapa hofe ho ka bang
088_0131 e tswang ho registrar of
088_0132 ha puo e lahlehelwa ke
088_0133 church turing thesis
088_0135 league baseball team
088_0136 articles including recorded
088_0137 tokomane eo o batlang ho
088_0138 tikoloho
088_0144 randburg
088_0147 motor vehicle manufacturers
088_0148 high seas fleet
088_0150 e kenella tlase mobung le
088_0154 mang ya ikemiseditseng ho nehelana
088_0160 bridgeport
088_0161 screen actors guild
088_0162 south asian association
088_0170 sa witblits se neng se
088_0171 environmental protection agency
088_0176 mmalwa le traste ditho tsohle
088_0180 citation needed april
088_0183 ka mokgwa o nepahetseng nakong
088_0184 motho a tshwerweng ho yona
088_0187 buddhism
088_0190 org wiki wikipedia
088_0192 electron transport chain
088_0193 proffesor
088_0194 kenngwa ha jine ya bt
088_0195 tshebetso e etsang hore ho
088_0196 united states president
088_0197 nuclear test ban
088_0201 poids et mesures
088_0203 bragg
088_0204 harry
088_0205 average family size
088_0209 ya hae ntle ho lebaka
088_0214 north west company
088_0218 dineo
088_0221 supreme allied commander
088_0225 formal diplomatic relations
088_0228 hoer leano le phethahale bophelong
088_0230 october
088_0234 golden globe film
088_0235 national science foundation
088_0243 tlhokeho ya mosebetsi wa ho
088_0247 power parity comparisons
088_0248 following world war
088_0251 strong nuclear force
088_0255 big bang model
088_0256 chancellorsville
088_0261 mamelodi
088_0263 ngotsweng ya ho ngodisa ofising
088_0268 nelson mandela le thabo mbeki
088_0269 palestine liberation organization
088_0271 fiction television series
088_0272 junior high school
088_0278 potter's
088_0279 ho kenngwa tshebetsong ha melao
088_0281 provenseng kang ho tla ba
088_0284 tailor
088_0285 free methodist church
088_0298 eo re neng re e
088_0302 great lakes region
088_0303 motho e mong ya nang
088_0304 nakong eo masimo a tlohetsweng
088_0305 seo a lokelang ho se
088_0307 early church fathers
088_0308 new york yankees
088_0314 ho hlokeha lengolo la tumello
088_0316 common law jurisdictions
088_0321 good
088_0323 united states
088_0326 bilateral immunity agreement
088_0328 maemo ana a mabe a
088_0331 holy hand grenade
088_0333 bafta winners people
088_0335 tsa larvae hammoho le mahe
088_0343 supreme court ruled
088_0349 united states geological
088_0351 ile ba hapa moputso wa
088_0352 president george
088_0355 blood
088_0361 van der waals
088_0362 motho ka mong o tlamehile
088_0365 states environmental protection
088_0367 maseru
088_0372 kofi
088_0375 bill
088_0381 efe kapa efe e boletsweng
088_0382 hore ho na le tshebetso
088_0384 hospital
088_0386 tla romelwa seteisheneng sa mapolesa
088_0387 tsosoloso ya boemo ba theshiari
088_0390 september
088_0391 primitive recursive functions
088_0392 north germanic languages
088_0399 ka mokgwa o hlakileng ho
088_0401 bophelong
088_0402 july
088_0411 ozone layer protection
088_0415 bay
088_0421 borwa e se nang morabe
088_0422 hore menyenyetsi e mabapi le
088_0425 nfc championship game
088_0427 tlhahiso ya poone tlasa nosetso
088_0429 law enforcement agencies
088_0430 monroe
088_0433 le o mong o na
088_0434 united states census
088_0436 tumello e ngotsweng fatshe e
088_0437 national football team
088_0438 numeric character references
088_0439 midrand
088_0440 ho tholwa ha ngwana ka
088_0441 la boemo bo hodimo la
088_0444 american psychiatric association
088_0446 original game boy
088_0447 ha eba kere e potolohisang
088_0449 army air corps
088_0450 tlhahiso e tswetseng pele ya
088_0452 moo motho a fumanang kuno
088_0458 e nngwe ya tsona e
088_0460 modern orthodox judaism
088_0465 e nang le share capital
088_0466 protea
088_0468 roman catholic priests
088_0470 gibbon
088_0471 mahola e tshwanetse ho etswa
088_0478 ho se ho kenwe ho
088_0479 military coup
088_0487 nakwana ke ho thusa balefi
088_0488 bad
088_0489 convention
088_0497 magnetic resonance imaging
088_0499 national baseball hall
088_0500 islamic conference oic
088_0503 science fiction hall
088_0508 tlhekelo ka letona la bonono
088_0517 billy
088_0518 ya grain sa ya tlhahiso
088_0520 nebula award winning
088_0521 mahola ke sera sa pele
088_0526 united states district
088_0531 ena ke e nngwe ya
089_0003 western european countries
089_0007 make extensive use
089_0008 o nka kilograma e le
089_0011 seetebosigo
089_0023 catherine
089_0031 european union member
089_0032 ho beha leihlo tshebediso ya
089_0033 ho feta ka moo ho
089_0038 american musical theatre
089_0039 moya wa ho etsa dintho
089_0040 game boy advance
089_0053 video game developers
089_0056 ya south african revenue service
089_0058 states unemployment rate
089_0061 rapid economic growth
089_0066 ha ho ne ho ena
089_0073 hubble space telescope
089_0074 liberal arts college
089_0076 grain sa ya tlhahiso ya
089_0084 palestinian national authority
089_0085 cognitive behavioral therapy
089_0087 ho thehwa ha diyuniti tsa
089_0088 garrick
089_0091 sexually transmitted diseases
089_0092 fact date january
089_0095 ba ratang naha ya habo
089_0096 boston red sox
089_0099 leo mobu o leng ho
089_0102 ke mang ya ka etsang
089_0112 pimville
089_0114 larry
089_0116 e na le dimojule tse
089_0117 monyakeng
089_0118 functional programming languages
089_0121 hard disk drive
089_0123 test ban treaty
089_0124 music awards winners
089_0128 clarify date february
089_0129 wa provinse ya bophelo bo
089_0131 sekgahla sa ho mela ha
089_0132 melbourne football club
089_0134 ho kganna ya borutehi bo
089_0135 bethal
089_0136 ha o a dumellwa ho
089_0137 united states government
089_0139 toka
089_0140 royal dutch shell
089_0141 pope benedict
089_0144 british west indies
089_0147 petroleum exporting countries
089_0148 billion years ago
089_0150 e poraefete ya ho fihlella
089_0153 eldorado
089_0154 asian financial crisis
089_0155 le hore ho tle ho
089_0158 northern mariana islands
089_0162 ho fana ka beile le
089_0163 mane ho isa ho a
089_0164 nobel prize winners
089_0166 extension
089_0169 aterese le nomoro ya mohala
089_0172 imperial japanese navy
089_0173 le hore re kgone ho
089_0174 tse ntjha tsa ho banka
089_0176 ka moo ho ka kgonehang
089_0177 rona ba ho lwantsha botlokotsebe
089_0179 tlhekelo
089_0182 ho ntlafatsa boleng ba bophelo
089_0184 ya tse romellwang ka ntle
089_0185 ho tshela oli e ntjha
089_0186 sa ntsaneng a le manyane
089_0187 western united states
089_0189 ya phemiti ya mosebetsi ya
089_0191 ka mora nako e itseng
089_0194 united states dollar
089_0199 khopi ya rasiti e saennweng
089_0200 lekala la thuto le thupelo
089_0203 ba badudi ba saruri ba
089_0209 sa dikopo moo bukana ya
089_0213 united states declaration
089_0214 south sandwich islands
089_0215 francisco bay area
089_0216 british foreign secretary
089_0226 ho tswa ho moabi ya
089_0227 new testament canon
089_0229 haufi tsa ntshetsopele ya setjhaba
089_0230 leng hore ha ho hlokehe
089_0239 ke wa qobella molemi ho
089_0240 african unity oau
089_0242 black sea coast
089_0243 la nakwana le lokelwang ho
089_0245 notable examples include
089_0246 aung san suu
089_0248 war political
089_0252 northern
089_0253 dennilton
089_0263 united states district
089_0264 e tiiseditsweng ha ditokomane di
089_0275 polasi le nang le boleng
089_0276 ya grain sa ya tlhahiso
089_0282 persian gulf states
089_0283 random access memory
089_0285 tsebiso ya lefapha le molaong
089_0287 states district court
089_0289 ofisi ya iss ya afrika
089_0294 box office success
089_0295 positive real numbers
089_0297 fact date july
089_0298 ke molao wa motheo ho
089_0300 general public license
089_0301 security assistance force
089_0304 ho sebedisa thaere e kgolwanyane
089_0305 kiana
089_0306 early morning hours
089_0311 ludwig von mises
089_0312 samuel's
089_0313 motheo
089_0324 le ho haha setjhaba sa
089_0325 e ya weposaeteng ya lefapha
089_0327 ho etsa diteko tsa hiv
089_0328 osama bin laden
089_0337 close air support
089_0340 tshebediso e phahameng ya sesebediswa
089_0341 hauhelele
089_0343 nebula award winning
089_0344 ho tla nne ho dule
089_0349 sound
089_0352 le ngodisitsweng mona afrika borwa
089_0354 old garden roses
089_0355 motherwell
089_0358 american nobel laureates
089_0367 ho fumana kalafo ya bongaka
089_0369 lengolo la tumello haeba o
089_0370 tlosa pompo pele ba ilo
089_0371 reef
089_0372 kopo e tlameha ho felehetswa
089_0374 episcopal church usa
089_0375 knights grand cross
089_0376 mokopi le mohatsa hae ba
089_0378 hong kong island
089_0385 phetoho efe kapa efe e
089_0386 national baseball hall
089_0387 professional american football
089_0390 tone ka nngwe ho tsamaisa
089_0391 grisly
089_0392 batlang ho fumana boahi ba
089_0394 romela ka mora nako ditlaleho
089_0397 e ne e le sebaka
089_0401 united states began
089_0402 ya naha e tshwereng motho
089_0403 pro football hall
089_0410 seo o lokelang ho se
089_0411 grand
089_0412 ford motor company
089_0413 sa moralo wa puo ho
089_0414 la ho qala la nakwana
089_0418 puo ya bajete le setatemente
089_0422 major professional sports
089_0423 valence bond theory
089_0424 ho ya ho se seng
089_0425 re tla dula re ntse
089_0426 itseng ntle le ho ama
089_0428 open source initiative
089_0429 american sign language
089_0430 le kgahleho bophelong ba motletlebi
089_0431 ya naha le ya matjhaba
089_0432 marcel
089_0436 hloka bokgoni ba ho phetha
089_0439 national public radio
089_0443 american voice actors
089_0444 ancient near east
089_0445 american political writers
089_0449 monetary fund imf
089_0451 ho ngodisa khampani e poraefete
089_0452 lejwe
089_0455 meade
089_0457 le nngwe feela afrika borwa
089_0458 diporofensi di a nahanwa boemong
089_0461 leondale
089_0463 ka hara naha ya afrika
089_0468 frank lloyd wright
089_0469 europe music
089_0470 state university alumni
089_0471 dilemong tse mmalwa tse fetileng
089_0476 ho mokga o laolang wa
089_0477 international astronomical union
089_0480 atlantic
089_0481 high middle ages
089_0482 president harry
089_0493 thibelang lefu ka mora ketsahalo
089_0496 leano le ona o hlokometse
089_0498 ya ho ba teng ho
089_0499 king james version
089_0504 sehla se hlahlamang sa ho
089_0505 kapa ofe ya batlang ho
089_0506 n g rjuna
089_0508 winter olympic games
089_0511 american musical theatre
089_0512 clarify date november
090_0001 org wiki wikipedia
090_0003 moahi wa naha ya afrika
090_0004 afrika borwa ha kopo e
090_0007 e tla fapana ka ho
090_0010 north west company
090_0011 la ditaba tsa lehae hore
090_0019 nakong eo masimo a tlohetsweng
090_0021 red blood cells
090_0023 citation needed april
090_0026 ka mokgwa o sa tlwaelehang
090_0028 supreme allied commander
090_0030 military coup
090_0033 leqephe la pele la foromo
090_0038 be bonolo ho palama baesekele
090_0039 grammatical
090_0042 ho se ho kenwe ho
090_0050 united states geological
090_0051 supreme court ruled
090_0053 congressional gold medal
090_0054 hoer leano le phethahale bophelong
090_0055 o ile a fana ka
090_0056 tlhahiso ya poone tlasa nosetso
090_0057 ha eba kere e potolohisang
090_0063 saint john river
090_0067 nfc championship game
090_0069 bad
090_0070 john
090_0071 senqu
090_0073 baheno
090_0083 tsebisa ka ho o ngolla
090_0084 bragg
090_0089 formal diplomatic relations
090_0090 maano a tsona ho latela
090_0093 ke ke wa kgona ho
090_0097 leng se bolelang hore ho
090_0098 palestine liberation organization
090_0103 north germanic languages
090_0106 hore ba kgone ho ba
090_0109 bophelong
090_0110 tokomane eo o batlang ho
090_0112 recent common ancestor
090_0116 fifa world cup
090_0117 hlahisa dijothollo di phahame haholo
090_0119 army air corps
090_0123 golden globe film
090_0129 complaints
090_0132 common law jurisdictions
090_0138 best supporting actor
090_0139 mahola e tshwanetse ho etswa
090_0141 nuclear test ban
090_0143 lefapheng la kgwebo le indasteri
090_0146 tse felletseng tsa moo ho
090_0147 big bang model
090_0148 e tswang ho registrar of
090_0151 proffesor
090_0154 mabapi le mefuta e metle
090_0157 chancellorsville
090_0169 south asian association
090_0170 strategic air command
090_0171 argentina ho ya afrika borwa
090_0172 articles including recorded
090_0173 hospital
090_0174 september
090_0186 european economic area
090_0187 royal albert hall
090_0201 le ho tempuwa ke mosebeletsi
090_0203 american jewish people
090_0205 modern orthodox judaism
090_0206 church turing thesis
090_0208 bridgeport
090_0209 l cuin abbr
090_0211 following world war
090_0218 mabapi le tlhahiso ya koro
090_0221 best foreign language
090_0223 electron transport chain
090_0230 national football team
090_0237 sa sepolesa sa afrika borwa
090_0243 protea
090_0248 american male singers
090_0251 league baseball team
090_0253 tlamehile maoto le matsoho ho
090_0257 american film producers
090_0259 van der waals
090_0260 kofi
090_0262 holy hand grenade
090_0263 blood
090_0271 seng le lefilwe bakeng sa
090_0273 internet protocol suite
090_0286 bilateral immunity agreement
090_0288 sam
090_0290 efe kapa efe eo ho
090_0296 roman catholic priests
090_0297 gibbon
090_0302 balemi ba batjha ba ka
090_0304 united states
090_0310 system
090_0316 nelson mandela le thabo mbeki
090_0322 miller's
090_0327 ho suthisa ka ho ya
090_0331 foreign direct investment
090_0340 dingane
090_0344 united states senate
090_0345 madison square garden
090_0346 primitive recursive functions
090_0348 national science foundation
090_0351 san francisco giants
090_0352 midrand
090_0353 di tswela pele ho sa
090_0364 tailor
090_0366 cathode ray tube
090_0369 american psychiatric association
090_0370 sebedisa tlhahisoleseding e kentsweng ke
090_0374 randfontein
090_0375 potter's
090_0377 great lakes region
090_0387 golden globe winners
090_0390 environmental protection agency
090_0393 united states president
090_0394 science fiction novel
090_0397 harry
090_0398 bafta winners people
090_0405 poids et mesures
090_0406 le hore re tle re
090_0408 african
090_0409 moscow state university
090_0411 tla romelwa seteisheneng sa mapolesa
090_0412 indastering e batsi ya temo
090_0417 free methodist church
090_0419 dineo
090_0422 october
090_0425 eo re neng re e
090_0426 centrally planned economy
090_0429 ozone layer protection
090_0430 le ho tloswa ha matlakala
090_0436 wa afrika borwa ya hlokahetseng
090_0437 empire
090_0439 durban
090_0440 magnetic resonance imaging
090_0442 bill
090_0444 mme re tshepa hore moya
090_0447 e nang le share capital
090_0450 good
090_0451 president george
090_0456 sehlopheng sa rona sa tshebetso
090_0460 human development index
090_0465 motho ya tshwereng thaetlele kapa
090_0468 new york yankees
090_0470 federal trade commission
090_0471 madison square garden
090_0472 ya mobu bakeng sa ntshetsopele
090_0473 khampani ya ba mmalwa e
090_0475 national hockey league
090_0476 russian civil war
090_0480 states environmental protection
090_0482 original game boy
090_0486 united states army
090_0487 united states census
090_0490 randburg
090_0492 ho tshwarella nako e telele
090_0494 e ntshitsweng ke bolaodi bo
090_0496 ka mokgwa o nepahetseng nakong
090_0497 buddhism
090_0501 station
090_0502 united states district
090_0506 ya grain sa ya tlhahiso
090_0508 ho ngodisa jwalo ka setsebi
091_0001 ho sireletsa le ho matlafatsa
091_0002 american film producers
091_0004 magnetic resonance imaging
091_0006 strong nuclear force
091_0007 hore ba kgone ho ba
091_0008 ba ngodise ho south african
091_0009 bilateral immunity agreement
091_0012 sireletsa le ho matlafatsa botsebi
091_0013 motho ya tshwereng thaetlele kapa
091_0014 average family size
091_0016 recent common ancestor
091_0024 phepelo ya dijo tsa polasing
091_0028 moahi wa naha ya afrika
091_0031 moaho wa lekgotla la naha
091_0033 ya mobu bakeng sa ntshetsopele
091_0037 golden globe film
091_0038 best foreign language
091_0039 van der waals
091_0040 man
091_0041 bakeng sa morwalo o mong
091_0043 etsa kopo ya ho ngodisa
091_0044 tlhahiso ya dijothollo mobung o
091_0045 power parity comparisons
091_0047 tsebisa ka ho o ngolla
091_0048 best supporting actor
091_0049 october
091_0052 poids et mesures
091_0053 great lakes region
091_0054 cathode ray tube
091_0055 numeric character references
091_0056 leqephe la pele la foromo
091_0059 sapoto jwalo ka ha e
091_0060 sehlopheng sa rona sa tshebetso
091_0061 palestine liberation organization
091_0066 seng feela ke ba buang
091_0069 moscow state university
091_0071 proffesor
091_0074 kgahlanong le dikgoka ho basadi
091_0075 southwestern united states
091_0079 mahola e tshwanetse ho etswa
091_0081 kenngwa ha jine ya bt
091_0082 mang ya ikemiseditseng ho nehelana
091_0087 le ho romela ditokomane ho
091_0088 tjhelete ya hae e kenang
091_0089 ka mokgwa o sa tlwaelehang
091_0091 bay
091_0093 baheno
091_0094 dutch east india
091_0099 le dipehelo tse ding tse
091_0100 provenseng kang ho tla ba
091_0103 o ne a atisa ho
091_0106 international atomic energy
091_0110 san francisco giants
091_0112 butlebutle ka mokgwa o ke
091_0115 foreign direct investment
091_0117 senqu
091_0118 ntate wa ngwana ya tswetsweng
091_0119 citation needed april
091_0122 bragg
091_0123 president george
091_0125 ka mokgwa o hlakileng ho
091_0126 ya mahola le dikokwanyana ka
091_0127 ya pele e neng e
091_0128 ho ba teng ha lenaneo
091_0129 strategic air command
091_0130 seng le lefilwe bakeng sa
091_0131 bad
091_0132 mokgwa wa elektroniki kapa khaontareng
091_0137 holy hand grenade
091_0138 kofi
091_0140 hlahisa dijothollo di phahame haholo
091_0142 hartbeespoort
091_0143 roman catholic priests
091_0144 ka mokgwa o nepahetseng nakong
091_0149 fiction television series
091_0152 armoured fighting vehicles
091_0158 e fumaneha ka potlako weposaeteng
091_0159 congressional gold medal
091_0160 madison square garden
091_0161 tlhahiso ya poone le soneblomo
091_0163 laesense ya boditjhaba ya ho
091_0164 new york yankees
091_0165 le kgonahalo ya hore batho
091_0166 september
091_0168 ya saense ya lekgotleng la
091_0170 army air corps
091_0172 leng se bolelang hore ho
091_0173 nuclear test ban
091_0174 bill
091_0178 states environmental protection
091_0181 free methodist church
091_0187 monroe
091_0193 le reng limited le tla
091_0202 junior high school
091_0203 recreation
091_0204 tla romelwa seteisheneng sa mapolesa
091_0205 golden globe winners
091_0206 hore menyenyetsi e mabapi le
091_0208 senyesemane
091_0210 le ho tloswa ha matlakala
091_0211 tlhahiso e tswetseng pele ya
091_0215 american male singers
091_0217 articles including recorded
091_0218 lekgotleng la dinyewe ho tla
091_0219 tsosoloso ya boemo ba theshiari
091_0225 bafta winners people
091_0226 indastering e batsi ya temo
091_0232 royal albert hall
091_0233 e nang le share capital
091_0238 lefapheng la kgwebo le indasteri
091_0239 common law jurisdictions
091_0243 randfontein
091_0244 ya hae ntle ho lebaka
091_0250 screen actors guild
091_0251 kamohelo ya ho sebetsa jwalo
091_0252 convention
091_0253 durban
091_0261 history
091_0263 internet protocol suite
091_0265 hall
091_0267 harry
091_0268 feteng dikgwedi tse tharo kapa
091_0272 new york jets
091_0273 makgoweng
091_0275 church turing thesis
091_0278 baka mathata temong ya dijothollo
091_0284 motho ka mong o tlamehile
091_0290 ho ntsha raporoto ya radiology
091_0291 ya thuso bakeng sa ho
091_0297 saint john river
091_0298 madison square garden
091_0300 dingane
091_0301 red blood cells
091_0302 tsa larvae hammoho le mahe
091_0305 e tswang ho registrar of
091_0306 fact date august
091_0308 wa lekgotla la naha la
091_0310 lekgotla la ho ntshuwa ha
091_0311 award winning authors
091_0312 nakwana ke ho thusa balefi
091_0313 protea
091_0314 primitive recursive functions
091_0316 american psychiatric association
091_0318 national hockey league
091_0322 buddhism
091_0323 ho ntse ho na le
091_0324 fifa world cup
091_0330 tlamehile maoto le matsoho ho
091_0333 ngotsweng ya ho ngodisa ofising
091_0343 tokomane eo o batlang ho
091_0345 la provinse kapa la naha
091_0357 united states senate
091_0362 gibbon
091_0366 tlhaho temeng ya saense ya
091_0370 good
091_0372 ozone layer protection
091_0373 tshebetso e etsang hore ho
091_0376 red blood cells
091_0382 russian civil war
091_0383 tlwaelo e ke ke ya
091_0387 moahong wa lekgotla la naha
091_0388 boqwabi
091_0390 blood
091_0391 argentina ho ya afrika borwa
091_0392 united states army
091_0400 ka dikopi tse tiiseleditsweng tsa
091_0403 tadimilwe thibelo ya tlhodisano le
091_0404 ya ho tswela pele ha
091_0405 dipeo le dipeo tse hlahang
091_0408 nfc championship game
091_0418 environmental protection agency
091_0419 le hore se sebetsa jwang
091_0420 sa witblits se neng se
091_0421 phemiti ya ho rafa kapa
091_0423 complaints
091_0424 tla kenyeletsa bonyane thuto e
091_0427 empire
091_0428 centrally planned economy
091_0433 midrand
091_0434 chancellorsville
091_0435 united states president
091_0436 motor vehicle manufacturers
091_0439 la ditaba tsa lehae hore
091_0440 randburg
091_0443 ya kopo ofising e haufi
091_0445 karolong e ka tlase ya
091_0447 modern orthodox judaism
091_0449 terekere le disebediswa tsa polasing
091_0450 dikarolo dife kapa dife tse
091_0451 military coup
091_0452 national science foundation
091_0453 ba teng ha lenaneo la
091_0457 electron transport chain
091_0458 tailor
091_0464 human development index
091_0465 moo ho ipehilweng ka tsela
091_0466 wa etsa tshebetso tsa kgwebisano
091_0468 ya poso e sa risefuwang
091_0469 kopo ya phemiti ya bodulo
091_0473 sam
091_0476 ke ke wa kgona ho
091_0479 ya tshwereng thaetlele kapa monga
091_0481 following world war
091_0485 big bang model
091_0487 system
091_0491 lokelang ho fetolelwa bafetoleding ba
091_0492 khampani ya ba mmalwa e
091_0495 org wiki wikipedia
091_0497 mang ya ka etsang kopo
091_0501 billy
091_0502 tlhekelo ka letona la bonono
091_0504 hloka tumello e ikgethang e
091_0510 le moemedi wa afrika borwa
091_0515 mang le a mang a
091_0516 thibelang lefu ka mora ketsahalo
091_0519 ya grain sa ya tlhahiso
091_0522 ho isa ho tse nne
091_0524 phahameng ya poone le mmaraka
091_0525 mahola ke sera sa pele
091_0528 e na le dimojule tse
091_0530 national baseball hall
091_0531 ho ngodisa jwalo ka setsebi
091_0532 united states district
091_0533 clarify date february
091_0534 dintlha tsena ka boraro ba
091_0536 moo se sa tshwanelang se
092_0001 a na le dijo tse
092_0003 ho tla etswa ho latela
092_0007 madison square garden
092_0008 national science foundation
092_0012 tsosoloso ya boemo ba theshiari
092_0013 moo motho a fumanang kuno
092_0014 nako e telele ho tiisitse
092_0015 fiction television series
092_0019 moahong wa lekgotla la naha
092_0023 motor vehicle manufacturers
092_0032 magnetic resonance imaging
092_0036 monroe
092_0038 good
092_0055 united states president
092_0057 randburg
092_0061 armoured fighting vehicles
092_0062 new york jets
092_0066 bridgeport
092_0067 l cuin abbr
092_0069 ya pele e neng e
092_0070 strong nuclear force
092_0072 bragg
092_0074 july
092_0075 french west africa
092_0077 best supporting actor
092_0078 high seas fleet
092_0079 banka
092_0089 protea
092_0093 lekala
092_0094 hall
092_0096 hore mobu o na le
092_0097 tailor
092_0100 african
092_0102 saense ya tlhaho dikri diploma
092_0103 hodimo ho moo ba tla
092_0105 fact date august
092_0107 ho etsa kopo ya taelo
092_0109 metsimaholo
092_0110 o motsho le o mosweu
092_0112 indastering e batsi ya temo
092_0114 original game boy
092_0117 org wiki wikipedia
092_0120 fifa world cup
092_0121 strategic air command
092_0126 empire
092_0128 television shows set
092_0131 centrally planned economy
092_0134 phepelo ya dijo tsa polasing
092_0135 tla romelwa seteisheneng sa mapolesa
092_0136 durban
092_0137 valhalla
092_0138 system
092_0139 bilateral immunity agreement
092_0141 saint john river
092_0148 miller's
092_0153 re kopa hore o ele
092_0154 united states geological
092_0155 free methodist church
092_0157 foreign direct investment
092_0159 le ho tloswa ha matlakala
092_0160 primitive recursive functions
092_0162 ka ho lekola tswelopele ya
092_0165 e tswang ho registrar of
092_0168 maseru
092_0169 military coup
092_0170 power parity comparisons
092_0176 argentina ho ya afrika borwa
092_0178 electron transport chain
092_0180 seng feela ke ba buang
092_0181 ofisi ya lefapha le haufi
092_0182 articles including recorded
092_0183 kapa mokga ofe kapa ofe
092_0184 central
092_0186 ozone layer protection
092_0190 leng se bolelang hore ho
092_0192 sireletsa le ho matlafatsa botsebi
092_0194 ho tshwarella nako e telele
092_0195 re tsebang ho sebetsa re
092_0197 hangata a na le metso
092_0198 junior high school
092_0206 following world war
092_0210 great lakes region
092_0211 big bang model
092_0212 red blood cells
092_0216 dutch east india
092_0217 national football team
092_0219 tikoloho
092_0221 formal diplomatic relations
092_0224 o na le diterekere le
092_0226 afrika borwa ba leng mose
092_0229 ntate wa ngwana ya tswetsweng
092_0231 october
092_0232 pheta tshebetso ena makgetlo a
092_0233 south asian association
092_0234 early church fathers
092_0236 united states senate
092_0238 internet protocol suite
092_0240 potter's
092_0241 ka nngwe e na le
092_0242 mmalwa le traste ditho tsohle
092_0245 nfc championship game
092_0247 congressional gold medal
092_0249 golden globe winners
092_0251 a diphoofolo tsa afrika borwa
092_0252 average family size
092_0256 grammatical
092_0258 tla tsamaelana le molao wa
092_0259 golden globe film
092_0263 human development index
092_0265 san francisco giants
092_0268 hartbeespoort
092_0269 palestine liberation organization
092_0273 harry
092_0276 screen actors guild
092_0279 randfontein
092_0283 award winning authors
092_0290 midrand
092_0292 makgoweng
092_0297 ba lakatsang ho sebetsa jwalo
092_0303 bakeng sa nako ya boholo
092_0304 rona bo tataiswe haholo ke
092_0306 gibbon
092_0311 proffesor
092_0312 motho ka mong o tlamehile
092_0327 mesebetsi e itseng ka ho
092_0330 north germanic languages
092_0335 e na le boikarabelo ba
092_0336 complaints
092_0338 moaho wa lekgotla la naha
092_0339 history
092_0341 american psychiatric association
092_0342 bafta winners people
092_0355 national hockey league
092_0359 seboka sa naha le lekgotla
092_0363 tlhaho temeng ya saense ya
092_0365 le dipehelo tse ding tse
092_0366 united states army
092_0369 supreme court ruled
092_0370 buddhism
092_0376 american film producers
092_0377 e nang le share capital
092_0380 moralo wa leano la puo
092_0381 ho se ho kenwe ho
092_0382 supreme allied commander
092_0385 september
092_0388 ba ka hodimo ho dilemo
092_0390 akhaonteng e latelang ya banka
092_0391 le hore se sebetsa jwang
092_0392 be bonolo ho palama baesekele
092_0393 john
092_0395 states environmental protection
092_0397 ho kenngwa tshebetsong ha melao
092_0398 ntswaki
092_0403 russian civil war
092_0404 baheno
092_0407 motho a tshwerweng ho yona
092_0413 rala mme o romele ditokomene
092_0417 nelson mandela le thabo mbeki
092_0424 numeric character references
092_0425 nuclear test ban
092_0426 pholisi ya naha ya batjha
092_0428 league baseball team
092_0431 man
092_0434 wa etsa tshebetso tsa kgwebisano
092_0436 president george
092_0437 o okina ahu
092_0444 bad
092_0445 madison square garden
092_0453 jwalo ka ha ho hlokeha
092_0454 ngotsweng ya ho ngodisa ofising
092_0457 mang ya ka etsang kopo
092_0459 ya tumello ya ho romela
092_0461 senqu
092_0470 bophelong
092_0471 best foreign language
092_0474 bona ba na le tokelo
092_0476 le eneji le la dikgwebo
092_0479 holy hand grenade
092_0482 mabapi le ho sebedisa poone
092_0484 common law jurisdictions
092_0491 boqwabi
092_0493 van der waals
092_0494 environmental protection agency
092_0500 united states district
092_0505 national baseball hall
092_0506 islamic conference oic
092_0511 ho isa ho tse nne
092_0512 liberal arts college
092_0523 ho sebedisa lebitso le molaong
092_0530 science fiction hall
092_0534 a hlahisa dikgwebo tsa tsona
092_0536 clarify date february
093_0001 russian civil war
093_0002 international atomic energy
093_0004 tla tshwarwa ka mokgwa o
093_0006 fact date august
093_0007 naha ya afrika borwa ba
093_0008 european economic area
093_0011 madison square garden
093_0013 proffesor
093_0025 supreme allied commander
093_0026 power parity comparisons
093_0030 bilateral immunity agreement
093_0031 internet protocol suite
093_0032 modern orthodox judaism
093_0033 madison square garden
093_0034 van der waals
093_0037 electron transport chain
093_0038 september
093_0040 hall
093_0041 central
093_0054 nuclear test ban
093_0055 lekala
093_0056 numeric character references
093_0057 national hockey league
093_0058 best supporting actor
093_0059 great lakes region
093_0086 la boemo bo hodimo la
093_0089 miller's
093_0095 ha re sebetsa mmoho re
093_0098 french west africa
093_0099 o okina ahu
093_0101 ya mobu bakeng sa ntshetsopele
093_0106 junior high school
093_0124 hoer leano le phethahale bophelong
093_0131 ya pele e neng e
093_0132 ya tumello ya ho romela
093_0134 ho tloha sebopehong sa kgale
093_0135 american film producers
093_0138 golden globe film
093_0140 tikoloho
093_0145 cathode ray tube
093_0150 history
093_0153 citation needed april
093_0154 bilateral immunity agreement
093_0158 primitive recursive functions
093_0159 convention
093_0161 federal trade commission
093_0162 neelane ka kopo ya hao
093_0166 man
093_0168 moo ho ipehilweng ka tsela
093_0173 bakeng sa nako e kgutshwane
093_0176 strong nuclear force
093_0178 north west company
093_0179 mang ya ka etsang kopo
093_0184 fifa world cup
093_0186 san francisco giants
093_0187 gibbon
093_0188 empire
093_0190 poone le dinawa tsa soya
093_0191 argentina ho ya afrika borwa
093_0193 la provinse kapa la naha
093_0194 a diphoofolo tsa afrika borwa
093_0198 bridgeport
093_0200 e tla fapana ka ho
093_0203 united states president
093_0204 palestine liberation organization
093_0206 north germanic languages
093_0213 e tswang ho registrar of
093_0215 ho tla etswa ho latela
093_0221 national science foundation
093_0225 tsa larvae hammoho le mahe
093_0226 hartbeespoort
093_0231 common law jurisdictions
093_0236 states environmental protection
093_0237 ditaba tsena di nkilwe thutong
093_0241 red blood cells
093_0243 le ho tempuwa ke mosebeletsi
093_0248 september
093_0249 efe kapa efe eo ho
093_0250 president george
093_0254 kapa hofe ho ka bang
093_0255 setsi se haufi sa mesebetsi
093_0256 le eneji le la dikgwebo
093_0261 metsimaholo
093_0263 kamohelo ya ho sebetsa jwalo
093_0266 ya ho jala dijothollo tse
093_0269 internet protocol suite
093_0270 red blood cells
093_0272 church turing thesis
093_0275 complaints
093_0277 maseru
093_0278 human development index
093_0281 electron transport chain
093_0282 congressional gold medal
093_0286 ha eba o hloleha ho
093_0288 fact date march
093_0289 nfc championship game
093_0291 madison square garden
093_0294 ka mokgwa o nepahetseng nakong
093_0302 akhaonteng e latelang ya banka
093_0304 supreme allied commander
093_0306 e nang le share capital
093_0308 ya saense ya lekgotleng la
093_0309 big bang model
093_0312 mabapi le tlhahiso ya koro
093_0314 potter's
093_0321 org wiki wikipedia
093_0322 hall
093_0323 tshebetso e etsang hore ho
093_0330 ka ba ka mokgwa wa
093_0333 monroe
093_0335 ya tshwereng thaetlele kapa monga
093_0337 southwestern united states
093_0339 central
093_0342 grammatical
093_0354 television shows set
093_0355 foreign direct investment
093_0359 van der waals
093_0365 mokgwa wa elektroniki kapa khaontareng
093_0368 mesebetsi e itseng ka ho
093_0373 mahola e tshwanetse ho etswa
093_0374 lefapheng la kgwebo le indasteri
093_0379 randfontein
093_0380 united states
093_0382 ka nngwe e na le
093_0383 senqu
093_0384 proffesor
093_0386 sam
093_0387 basebeletsi ba hao le dijothollo
093_0389 mang ya ikemiseditseng ho nehelana
093_0391 formal diplomatic relations
093_0392 national football team
093_0393 saense ya tlhaho dikri diploma
093_0394 madison square garden
093_0398 russian civil war
093_0400 international atomic energy
093_0406 e leng se etsang hore
093_0411 ba ngodise ho south african
093_0412 tsosoloso ya boemo ba theshiari
093_0413 di tswela pele ho sa
093_0414 articles including recorded
093_0415 saint john river
093_0416 sa witblits se neng se
093_0424 e le kgolo ho eo
093_0427 supreme court ruled
093_0428 fact date august
093_0429 league baseball team
093_0430 united states geological
093_0433 l cuin abbr
093_0437 nakong eo masimo a tlohetsweng
093_0438 nuclear test ban
093_0439 ho etsa hore naha ya
093_0441 ya hae ntle ho lebaka
093_0442 ho tshwarella nako e telele
093_0444 ho suthisa ka ho ya
093_0445 ho na le mefuta e
093_0447 chancellorsville
093_0448 ho ntsha raporoto ya radiology
093_0449 leqephe la pele la foromo
093_0450 tswela pele ho sebetsa le
093_0451 july
093_0454 moscow state university
093_0455 tlhahiso e tswetseng pele ya
093_0457 average family size
093_0458 tlasa merero e hlwauweng mona
093_0459 royal albert hall
093_0460 harry
093_0463 high seas fleet
093_0466 october
093_0468 fiction television series
093_0469 environmental protection agency
093_0471 tse ka hodimo tsa mobu
093_0472 ka baka hore a lefiswe
093_0473 baka mathata temong ya dijothollo
093_0476 bad
093_0477 mamelodi
093_0480 ba ka hodimo ho dilemo
093_0483 roman catholic priests
093_0484 ka nepo le ho boloka
093_0485 power parity comparisons
093_0486 magnetic resonance imaging
093_0489 award winning authors
093_0491 tailor
093_0492 following world war
093_0493 united states census
093_0494 motho ya tshwereng thaetlele kapa
093_0495 midrand
093_0501 eo re neng re e
093_0502 indastering e batsi ya temo
093_0503 baheno
093_0512 science fiction novel
093_0514 strategic air command
093_0517 makgoweng
093_0520 bakeng sa nako ya boholo
093_0522 be bonolo ho palama baesekele
093_0524 bill
093_0525 early church fathers
093_0527 bafta winners people
093_0528 wa afrika borwa a ka
093_0530 recent common ancestor
093_0531 lekgotleng la dinyewe ho tla
093_0532 modern orthodox judaism
093_0534 ozone layer protection
093_0537 screen actors guild
093_0541 hospital
093_0544 military coup
093_0547 eighty years war
093_0553 poids et mesures
093_0554 bragg
093_0562 science fiction hall
093_0568 a hlahisa dikgwebo tsa tsona
093_0570 liberal arts college
093_0573 thibelang lefu ka mora ketsahalo
093_0574 billy
093_0575 station
093_0576 e na le dimojule tse
093_0577 national baseball hall
093_0580 sebediswang wa ho phethola mobu
094_0001 ntshetsopele ya dipeo tsa oli
094_0002 october
094_0006 royal albert hall
094_0007 o neng o rena ditherisanong
094_0008 mang ya ikemiseditseng ho nehelana
094_0009 empire
094_0010 kontane kapa ka tjheke e
094_0012 poids et mesures
094_0013 lebelo la ho potoloha ha
094_0015 law enforcement agencies
094_0017 states environmental protection
094_0023 feta pele hore ho na
094_0026 proffesor
094_0028 free methodist church
094_0031 nelson mandela le thabo mbeki
094_0033 primitive recursive functions
094_0043 formal diplomatic relations
094_0044 bay
094_0046 wa etsa tshebetso tsa kgwebisano
094_0047 american jewish people
094_0049 bafta winners people
094_0053 junior high school
094_0054 mme re tshepa hore moya
094_0059 tsebisa ka ho o ngolla
094_0060 national hockey league
094_0064 ho etsa hore naha ya
094_0065 north west company
094_0066 jwalo ka ha ho hlokeha
094_0071 american male singers
094_0072 van der waals
094_0080 american film producers
094_0081 bilateral immunity agreement
094_0083 ya ho ba teng ha
094_0084 e nang le share capital
094_0096 bad
094_0097 mabapi le sehla se tlang
094_0103 french west africa
094_0109 buddhism
094_0110 l cuin abbr
094_0112 screen actors guild
094_0113 le eneji le la dikgwebo
094_0119 ya ho tswela pele ha
094_0121 system
094_0123 big bang model
094_0128 mmalwa le traste ditho tsohle
094_0130 armoured fighting vehicles
094_0131 ho se ho kenwe ho
094_0134 fact date march
094_0136 banka
094_0137 sebediswa ho laola lebelo la
094_0144 e leng se etsang hore
094_0147 ha eba o hloleha ho
094_0149 television shows set
094_0150 gibbon
094_0152 argentina ho ya afrika borwa
094_0153 senqu
094_0155 diprojeke tsa bohlokwa tsa lenaneo
094_0156 setefikeiti sa boingodiso ba koloi
094_0157 ho lefa molato wa hao
094_0159 sebetsa jwalo ka borasaense ba
094_0160 provenseng kang ho tla ba
094_0163 supreme allied commander
094_0165 re tsebang ho sebetsa re
094_0168 army air corps
094_0174 southwestern united states
094_0175 madison square garden
094_0178 ka ntle ya batlang ho
094_0179 lekala
094_0180 fifa world cup
094_0182 internet protocol suite
094_0185 complaints
094_0186 kopo ya phemiti ya bodulo
094_0188 durban
094_0189 cathode ray tube
094_0190 fact date august
094_0193 harry
094_0197 mokgwa wa elektroniki kapa khaontareng
094_0204 man
094_0206 united states president
094_0211 madison square garden
094_0213 roman catholic priests
094_0214 ho na le mefuta e
094_0216 motho e mong ya nang
094_0217 african
094_0219 john
094_0223 citation needed april
094_0224 kapa mokgatlo wa nakwana o
094_0227 e ya ho lefapha la
094_0230 golden globe film
094_0232 khampani ya ba mmalwa e
094_0236 power parity comparisons
094_0242 russian civil war
094_0243 united states census
094_0244 naha ya afrika borwa ba
094_0246 di be tharo mme o
094_0248 le ho tempuwa ke mosebeletsi
094_0249 protea
094_0251 mabitso a bonkgetheng bakeng sa
094_0254 president george
094_0259 ditho tsa palamente ha di
094_0261 ba bangata ba nang le
094_0262 ho hlokeha lengolo la tumello
094_0273 red blood cells
094_0275 kopo ya laesense ya sekepe
094_0277 september
094_0281 ho suthisa ka ho ya
094_0282 lekgotleng la dinyewe ho tla
094_0283 holy hand grenade
094_0284 supreme court ruled
094_0285 midrand
094_0286 kapa dife tse amanang le
094_0288 mamelodi
094_0289 tailor
094_0290 san francisco giants
094_0293 diminerale kapa mahakwe a bohlokwa
094_0294 ka dikopi tse tiiseleditsweng tsa
094_0296 bill
094_0298 moo ho ipehilweng ka tsela
094_0299 mabapi le tlhahiso ya koro
094_0300 bragg
094_0301 a lehodimo nakong ya tshebediso
094_0302 dikopo tse sa tlatswang ka
094_0307 ya tumello ya ho romela
094_0309 saense ya tlhaho dikri diploma
094_0310 randfontein
094_0311 se fetileng sa hlabula e
094_0314 tumello e ngotsweng fatshe e
094_0315 united states army
094_0316 congressional gold medal
094_0318 best foreign language
094_0320 modern orthodox judaism
094_0322 ka bonyane dipuo tse tsheletseng
094_0323 valhalla
094_0324 united states geological
094_0326 ho behela taelo ka thoko
094_0327 foreign direct investment
094_0328 e ka nna yaba o
094_0329 tlhahiso e tswetseng pele ya
094_0330 mabapi le ho sebedisa poone
094_0332 north germanic languages
094_0334 early church fathers
094_0339 phemiti ya ho rafa kapa
094_0342 ba ngodise ho south african
094_0343 tlhahiso ya poone le soneblomo
094_0345 akhaonteng e latelang ya banka
094_0346 ha metsi pakeng tsa dikarolwana
094_0347 potter's
094_0350 di tswela pele ho sa
094_0353 fuwa ditokelo tsa bona tsa
094_0354 poone le dinawa tsa soya
094_0358 phepelo ya dijo tsa polasing
094_0359 magnetic resonance imaging
094_0361 military coup
094_0362 leng se bolelang hore ho
094_0363 boqwabi
094_0364 court ha e le traste
094_0365 united states senate
094_0366 ba ka hodimo ho dilemo
094_0367 articles including recorded
094_0368 eighty years war
094_0370 pholisi ya naha ya batjha
094_0373 setsi se haufi sa mesebetsi
094_0375 ditaba tsena di nkilwe thutong
094_0379 nuclear test ban
094_0382 south asian association
094_0383 borwa e se nang morabe
094_0384 se kgethollwe ho ya ka
094_0385 ho ntsha raporoto ya radiology
094_0389 common law jurisdictions
094_0393 ile wa rekisetswa lefapha la
094_0394 ka nepo le ho boloka
094_0395 sam
094_0399 environmental protection agency
094_0403 new york jets
094_0404 manejara wa lebatowa a ananela
094_0405 maseru
094_0406 ho kenngwa tshebetsong ha melao
094_0408 strategic air command
094_0409 bakeng sa nako ya boholo
094_0410 tsosoloso ya boemo ba theshiari
094_0411 ho tshwarella nako e telele
094_0415 high seas fleet
094_0416 new york yankees
094_0417 saint john river
094_0423 original game boy
094_0427 good
094_0430 tlasa merero e hlwauweng mona
094_0431 church turing thesis
094_0434 org wiki wikipedia
094_0435 ka mokgwa o hlakileng ho
094_0437 league baseball team
094_0439 randburg
094_0441 moscow state university
094_0442 tshebedisano e kwetsweng e lefa
094_0444 red blood cells
094_0447 miller's
094_0448 great lakes region
094_0450 best supporting actor
094_0451 nako e telele ho tiisitse
094_0452 nfc championship game
094_0453 ntswaki
094_0455 mesebetsi e itseng ka ho
094_0456 numeric character references
094_0457 kenngwa ha jine ya bt
094_0458 tla kenyeletsa bonyane thuto e
094_0459 sa witblits se neng se
094_0460 ka mokgwa o nepahetseng nakong
094_0463 following world war
094_0464 bridgeport
094_0465 palestine liberation organization
094_0466 basebeletsi ba hao le dijothollo
094_0467 makgoweng
094_0468 human development index
094_0469 federal trade commission
094_0474 motho a tshwerweng ho yona
094_0478 o tshwanetse ho ba le
094_0480 golden globe winners
094_0481 ozone layer protection
094_0483 national science foundation
094_0484 strong nuclear force
094_0487 baheno
094_0489 fiction television series
094_0492 grammatical
094_0497 international atomic energy
094_0499 disebediswa tse seng di ile
094_0501 moralo wa tshebetso wa naha
094_0502 thibelang lefu ka mora ketsahalo
094_0503 tsa lehae provinseng eo o
094_0504 open source initiative
094_0505 ho ngodisa jwalo ka setsebi
094_0506 south sandwich islands
094_0507 tlhekelo ka letona la bonono
094_0508 larry
094_0509 ho fumana kalafo ya bongaka
094_0510 tswela pele ka lenaneo la
094_0511 ntlafatsa polokeho le tshireletso ya
094_0512 tsa theko ya sehlahiswa le
094_0514 lefuweng bakeng sa tokelo ya
094_0515 mananeo a mmuso a ho
094_0517 ikopanye le ofisi ya lefapha
094_0518 dintlha tsena ka boraro ba
094_0519 army occupied cypriot
094_0520 islamic conference oic
094_0522 ditletlebo
094_0523 leng hore ha ho hlokehe
094_0525 ho ya ho se seng
094_0526 wa seboka sa naha le
094_0527 rephaboliki
095_0001 tla kenyeletsa bonyane thuto e
095_0002 kamohelo ya ho sebetsa jwalo
095_0003 centrally planned economy
095_0004 united states census
095_0005 maano a tsona ho latela
095_0006 convention
095_0007 foreign direct investment
095_0008 ya ho lebela ya bopolesa
095_0009 ho na le mefuta e
095_0010 se fana ka monyetla o
095_0011 bridgeport
095_0012 sepolesa sa aforikaborwa e lefe
095_0013 etsa kopo ya ho ngodisa
095_0014 balemi ba batjha ba ka
095_0015 tse felletseng tsa moo ho
095_0016 ya kopo ofising e haufi
095_0017 ya tshwereng thaetlele kapa monga
095_0018 tailor
095_0019 mesebetsi e itseng ka ho
095_0020 national hockey league
095_0021 e fumaneha ka potlako weposaeteng
095_0022 e sebetswa letsatsing leo e
095_0024 dipuo tsa afrika borwa tsa
095_0025 bakeng sa nako ya boholo
095_0026 ya ho tswela pele ha
095_0028 butlebutle ka mokgwa o ke
095_0030 durban
095_0031 moahi wa naha ya afrika
095_0033 a lehodimo nakong ya tshebediso
095_0034 magnetic resonance imaging
095_0037 hangata a na le metso
095_0038 efe kapa efe e boletsweng
095_0039 united states army
095_0040 bragg
095_0041 october
095_0042 kopo ya laesense ya sekepe
095_0043 ba ka tlasa dilemo tse
095_0044 afrika borwa ha kopo e
095_0045 early church fathers
095_0047 new york yankees
095_0048 valhalla
095_0049 re tsebang ho sebetsa re
095_0050 boholo ba masimo a hao
095_0051 basebeletsi ba hao le dijothollo
095_0052 internet protocol suite
095_0054 kapa hofe ho ka bang
095_0056 di be tharo mme o
095_0057 e nngwe ya tsona e
095_0058 ha re sebetsa mmoho re
095_0059 bay
095_0060 federal trade commission
095_0062 tlhahiso e tswetseng pele ya
095_0063 diminerale kapa mahakwe a bohlokwa
095_0067 common law jurisdictions
095_0068 royal albert hall
095_0069 nakwana ke ho thusa balefi
095_0070 man
095_0071 setsi se haufi sa mesebetsi
095_0072 indastering e batsi ya temo
095_0073 phemiti ya ho rafa kapa
095_0075 o motsho le o mosweu
095_0076 aterese ya moo o dulang
095_0077 moralo wa leano la puo
095_0078 makgoweng
095_0080 military coup
095_0082 tsena tsohle di ile tsa
095_0084 bill
095_0085 palestine liberation organization
095_0086 sireletsa le ho matlafatsa botsebi
095_0088 central
095_0089 kenngwa ha jine ya bt
095_0090 mabapi le tlhahiso ya koro
095_0091 ke ema ka pela lona
095_0092 mang ya ka etsang kopo
095_0093 grammatical
095_0096 ho se ho kenwe ho
095_0099 le ho tempuwa ke mosebeletsi
095_0101 le hore re tle re
095_0102 lebelo la ho potoloha ha
095_0103 supreme allied commander
095_0104 citation needed april
095_0105 hartbeespoort
095_0106 banna le basadi ba na
095_0107 sebedisa tlhahisoleseding e kentsweng ke
095_0108 tlwaelo e ke ke ya
095_0110 tlamehile maoto le matsoho ho
095_0111 american film producers
095_0112 north west company
095_0113 mabapi le ho sebedisa poone
095_0117 supreme court ruled
095_0118 american male singers
095_0119 kopo ya phemiti ya bodulo
095_0120 congressional gold medal
095_0121 ka mokgwa o hlakileng ho
095_0123 madison square garden
095_0125 eighty years war
095_0126 fifa world cup
095_0128 numeric character references
095_0130 best supporting actor
095_0131 moo ho ipehilweng ka tsela
095_0133 empire
095_0135 roman catholic priests
095_0136 tlhahiso ya poone tlasa nosetso
095_0138 united states geological
095_0140 kofi
095_0142 feta pele hore ho na
095_0144 l cuin abbr
095_0145 tikoloho
095_0146 new york jets
095_0147 hore menyenyetsi e mabapi le
095_0150 haufi le wena kapa ba
095_0151 tse ka hodimo tsa mobu
095_0159 bona ba na le tokelo
095_0160 mahola e tshwanetse ho etswa
095_0161 ka baka hore a lefiswe
095_0162 khampani ya ba mmalwa e
095_0164 pholisi ya naha ya batjha
095_0165 boleng ba bophelo ba batho
095_0166 tsa lekgetho di ka phethahatswa
095_0168 e nang le share capital
095_0169 united states senate
095_0170 san francisco giants
095_0171 poids et mesures
095_0173 harry
095_0174 hall
095_0175 ha ho kgethwa dipuo tseo
095_0176 ya mobu bakeng sa ntshetsopele
095_0178 terekere le disebediswa tsa polasing
095_0181 tlhahiso ya poone le soneblomo
095_0182 sa witblits se neng se
095_0183 o ne a atisa ho
095_0185 tjhelete ya hae e kenang
095_0186 ya pele e neng e
095_0187 ka nngwe e na le
095_0188 dingane
095_0189 hore ho na le tshebetso
095_0190 nelson mandela le thabo mbeki
095_0191 league baseball team
095_0192 recreation
095_0193 ntate wa ngwana ya tswetsweng
095_0194 taolo ka dikhemikhale le mefuta
095_0195 ile wa rekisetswa lefapha la
095_0196 electron transport chain
095_0200 big bang model
095_0201 law enforcement agencies
095_0206 bilateral immunity agreement
095_0208 nfc championship game
095_0210 tsa ka hara naha le
095_0215 ho tholwa ha ngwana ka
095_0217 junior high school
095_0218 la dibokonyana tsena tse salang
095_0219 ke molaodi kakaretso kapa o
095_0220 dikopo tse sa tlatswang ka
095_0221 miller's
095_0223 american jewish people
095_0224 nuclear test ban
095_0226 midrand
095_0227 tla romelwa seteisheneng sa mapolesa
095_0228 modern orthodox judaism
095_0230 tswela pele ka mokgwa wa
095_0234 great lakes region
095_0235 naha ya afrika borwa kapa
095_0237 ho lefa molato wa hao
095_0238 la ditaba tsa lehae hore
095_0241 e leng se etsang hore
095_0242 e tswang ho registrar of
095_0244 batsi mabapi le sekgahla sa
095_0247 o na le diterekere le
095_0249 recent common ancestor
095_0251 disebediswa tse seng di ile
095_0252 primitive recursive functions
095_0255 formal diplomatic relations
095_0258 efe kapa efe eo ho
095_0260 a diphoofolo tsa afrika borwa
095_0263 screen actors guild
095_0265 system
095_0267 ditaba tsena di nkilwe thutong
095_0269 kgopolo ya hore dihlahiswa tse
095_0271 ha metsi pakeng tsa dikarolwana
095_0272 le ho tloswa ha matlakala
095_0274 ka mokgwa o nepahetseng nakong
095_0275 tsebisa ka ho o ngolla
095_0278 july
095_0280 feteng dikgwedi tse tharo kapa
095_0281 akhaonteng e latelang ya banka
095_0282 randburg
095_0283 ntshetsopele ya dipeo tsa oli
095_0284 chancellorsville
095_0285 tse ding le tse ding
095_0286 ka morero wa ho matlafatsa
095_0287 bad
095_0288 states environmental protection
095_0289 mme hona ho tla ya
095_0290 national football team
095_0291 september
095_0292 blood
095_0293 history
095_0294 monroe
095_0296 kgahlanong le dikgoka ho basadi
095_0298 be bonolo ho palama baesekele
095_0299 complaints
095_0300 baheno
095_0301 o okina ahu
095_0302 cathode ray tube
095_0304 fiction television series
095_0307 hoer leano le phethahale bophelong
095_0308 sam
095_0311 articles including recorded
095_0312 leqephe la pele la foromo
095_0313 borwa e se nang morabe
095_0315 russian civil war
095_0320 seo o hopotseng ho se
095_0321 seng feela ke ba buang
095_0322 ozone layer protection
095_0323 dipeo le dipeo tse hlahang
095_0324 kgone ho tswela pele ka
095_0325 e tla fapana ka ho
095_0327 armoured fighting vehicles
095_0329 phepelo ya dijo tsa polasing
095_0330 holy hand grenade
095_0331 environmental protection agency
095_0332 kopo ya setefikeiti sa ho
095_0334 free methodist church
095_0336 golden globe winners
095_0337 dutch east india
095_0341 international atomic energy
095_0342 ile ba hapa moputso wa
095_0343 kopi e tiiseditsweng ya bukana
095_0345 ho tla etswa ho latela
095_0346 north germanic languages
095_0349 church turing thesis
095_0351 org wiki wikipedia
095_0352 south asian association
095_0353 la provinse kapa la naha
095_0354 fuwa ditokelo tsa bona tsa
095_0355 pheta tshebetso ena makgetlo a
095_0357 french west africa
095_0359 european economic area
095_0360 ha eba o hloleha ho
095_0362 mabapi le sehla se tlang
095_0363 e fuwa baahi ba naha
095_0364 strategic air command
095_0365 following world war
095_0369 human development index
095_0371 e tlang tse mabapi le
095_0373 tadimilwe thibelo ya tlhodisano le
095_0374 science fiction novel
095_0375 motho ya tshwereng thaetlele kapa
095_0376 mang ya ikemiseditseng ho nehelana
095_0377 nna ya haella ka ha
095_0378 batho
095_0379 original game boy
095_0382 united states
095_0384 ho fanwa ka sona ka
095_0386 neelane ka kopo ya hao
095_0387 tlhokomelo mabapi le tshebediso e
095_0392 ka nna ya boela ya
095_0395 madison square garden
095_0396 jwalo ka ha ho hlokeha
095_0399 fact date march
095_0400 o neng o rena ditherisanong
095_0401 ho behela taelo ka thoko
095_0403 ya tumello ya ho romela
095_0405 ho suthisa ka ho ya
095_0406 tsitsitseng mmusong maemong le ha
095_0407 ho tshwarella nako e telele
095_0408 argentina ho ya afrika borwa
095_0410 ba ka hodimo ho dilemo
095_0413 award winning authors
095_0414 boqwabi
095_0416 metsimaholo
095_0417 mokgwa wa elektroniki kapa khaontareng
095_0418 high seas fleet
095_0419 tshebedisano e kwetsweng e lefa
095_0420 ngotsweng ya ho ngodisa ofising
095_0422 ho ba teng ha lenaneo
095_0423 moo motho a fumanang kuno
095_0424 ya etsang kopo ya tokomane
095_0426 sa sepolesa sa afrika borwa
095_0427 hlodisana le dijothollo mabapi le
095_0430 diprojeke tsa bohlokwa tsa lenaneo
095_0436 manejara wa lebatowa a ananela
095_0437 pakeng tsa dikarolwana tsa mobu
095_0439 lefapheng la kgwebo le indasteri
095_0440 best foreign language
095_0441 golden globe film
095_0442 randfontein
095_0446 gibbon
095_0448 african
095_0449 bophelong
095_0452 red blood cells
095_0453 strong nuclear force
095_0456 tsa larvae hammoho le mahe
095_0457 keketseho thekong ya matjhaba e
095_0458 ha eba poone e sa
095_0460 tsa taolo ka dikhemikhale le
095_0462 saint john river
095_0463 tla tshwarwa ka mokgwa o
095_0467 mesebetsi efe ya ho mmaraka
095_0468 mokgatlo o emetseng basebeletsi tumellanong
095_0469 average family size
095_0470 tla tsamaelana le molao wa
095_0473 ka ba ka mokgwa wa
095_0476 phethahatso ya leano lena e
095_0477 bafta winners people
095_0478 potter's
095_0479 le dipehelo tse ding tse
095_0480 leng se bolelang hore ho
095_0481 e ntshitsweng ke bolaodi bo
095_0482 buddhism
095_0483 moscow state university
095_0485 van der waals
095_0486 united states president
095_0491 fact date august
095_0493 power parity comparisons
095_0494 ofisi ya lefapha le haufi
095_0498 sehlopheng sa rona sa tshebetso
095_0500 american psychiatric association
095_0503 station
095_0504 sebediswang wa ho phethola mobu
095_0505 mahola ke sera sa pele
096_0004 international atomic energy
096_0010 baheno
096_0014 sebedisa tlhahisoleseding e kentsweng ke
096_0016 e fuwa baahi ba naha
096_0017 screen actors guild
096_0018 sam
096_0021 military coup
096_0022 ofisi ya lefapha le haufi
096_0024 mahola e tshwanetse ho etswa
096_0029 kopi e tiiseditsweng ya bukana
096_0030 recent common ancestor
096_0032 united states geological
096_0033 recreation
096_0034 environmental protection agency
096_0035 potter's
096_0039 kofi
096_0040 van der waals
096_0042 lefapheng la kgwebo le indasteri
096_0043 midrand
096_0046 tsosoloso ya boemo ba theshiari
096_0051 fifa world cup
096_0052 kgone ho tswela pele ka
096_0053 senqu
096_0064 ba bangata ba ile ba
096_0066 ho tloha sebopehong sa kgale
096_0068 bophelong
096_0070 tlhokeho ya mosebetsi wa ho
096_0073 congressional gold medal
096_0074 hlahisa dijothollo di phahame haholo
096_0075 fuwa ditokelo tsa bona tsa
096_0076 law enforcement agencies
096_0077 hartbeespoort
096_0078 ho fanwa ka sona ka
096_0079 electron transport chain
096_0080 common law jurisdictions
096_0081 holy hand grenade
096_0084 supreme court ruled
096_0085 golden globe winners
096_0087 system
096_0091 monroe
096_0095 league baseball team
096_0097 poone le dinawa tsa soya
096_0098 grammatical
096_0103 miller's
096_0104 le o mong o na
096_0109 roman catholic priests
096_0112 tsa tokisetso tsa lekgetho di
096_0114 o ne a atisa ho
096_0115 mabapi le tlhahiso ya koro
096_0116 nfc championship game
096_0119 madison square garden
096_0120 bad
096_0133 fact date march
096_0134 baka mathata temong ya dijothollo
096_0135 national science foundation
096_0136 september
096_0137 red blood cells
096_0138 mahareng a phato ho fihlela
096_0139 setifikeiti sa tswalo sa afrika
096_0140 formal diplomatic relations
096_0143 randburg
096_0144 le dipehelo tse ding tse
096_0148 october
096_0154 royal albert hall
096_0156 moo motho a fumanang kuno
096_0160 united states census
096_0162 modern orthodox judaism
096_0164 proffesor
096_0165 fiction television series
096_0166 e nang le share capital
096_0170 l cuin abbr
096_0174 average family size
096_0176 hore ho na le tshebetso
096_0178 junior high school
096_0184 history
096_0186 television shows set
096_0188 new york yankees
096_0189 balemi ba batjha ba ka
096_0191 ka ho lekola tswelopele ya
096_0192 afrika borwa ha kopo e
096_0196 american psychiatric association
096_0200 new york jets
096_0204 man
096_0207 hospital
096_0209 american film producers
096_0210 valhalla
096_0213 army air corps
096_0214 bakeng sa nako e kgutshwane
096_0215 mabitso a bonkgetheng bakeng sa
096_0216 ho na le mefuta e
096_0217 mesebetsi e itseng ka ho
096_0222 butlebutle ka mokgwa o ke
096_0226 following world war
096_0230 lekgotla la ho ntshuwa ha
096_0231 strategic air command
096_0233 church turing thesis
096_0236 original game boy
096_0239 north west company
096_0240 keketseho thekong ya matjhaba e
096_0244 ya thuso bakeng sa ho
096_0247 early church fathers
096_0248 a na le dijo tse
096_0249 tlwaelo e ke ke ya
096_0250 nuclear test ban
096_0252 ntshetsopele ya dipeo tsa oli
096_0255 john
096_0257 best foreign language
096_0258 peo ya ona e ka
096_0259 e tswang ho registrar of
096_0260 high seas fleet
096_0261 tsa lekgetho di ka phethahatswa
096_0262 batsi mabapi le sekgahla sa
096_0263 ya mahola le dikokwanyana ka
096_0265 ka mokgwa o hlakileng ho
096_0266 bafta winners people
096_0267 poids et mesures
096_0274 states environmental protection
096_0275 power parity comparisons
096_0278 ka morero wa ho matlafatsa
096_0282 north germanic languages
096_0289 primitive recursive functions
096_0295 ho suthisa ka ho ya
096_0296 senyesemane
096_0297 cathode ray tube
096_0301 nelson mandela le thabo mbeki
096_0302 hore ba kgone ho ba
096_0304 o neng o rena ditherisanong
096_0305 centrally planned economy
096_0306 foreign direct investment
096_0311 ho tholwa ha ngwana ka
096_0312 saint john river
096_0314 randfontein
096_0318 motho ka mong o tlamehile
096_0322 tikoloho
096_0323 ya sefafatsi se fatshe sa
096_0326 pheta tshebetso ena makgetlo a
096_0327 science fiction novel
096_0328 sireletsa le ho matlafatsa botsebi
096_0330 protea
096_0333 motor vehicle manufacturers
096_0335 chancellorsville
096_0337 bragg
096_0338 president george
096_0339 citation needed april
096_0344 ho sireletsa le ho matlafatsa
096_0345 magnetic resonance imaging
096_0346 laesense ya boditjhaba ya ho
096_0351 ozone layer protection
096_0353 durban
096_0361 american jewish people
096_0362 african
096_0363 award winning authors
096_0364 supreme allied commander
096_0365 org wiki wikipedia
096_0366 central
096_0368 tse ding le tse ding
096_0370 national hockey league
096_0372 nakwana ke ho thusa balefi
096_0382 golden globe film
096_0384 ka ba ka mokgwa wa
096_0387 fact date august
096_0388 o lokela ho ba motho
096_0391 red blood cells
096_0393 mang ya ikemiseditseng ho nehelana
096_0397 e tlang tse mabapi le
096_0398 dutch east india
096_0400 free methodist church
096_0401 phemiti ya ho rafa kapa
096_0407 palestine liberation organization
096_0409 e nngwe ya tsona e
096_0410 ngotsweng ya ho ngodisa ofising
096_0420 leng se bolelang hore ho
096_0422 kontane kapa ka tjheke e
096_0423 ho ntsha raporoto ya radiology
096_0424 great lakes region
096_0425 buddhism
096_0427 ke ke wa kgona ho
096_0428 o okina ahu
096_0429 sa witblits se neng se
096_0431 federal trade commission
096_0433 le hore se sebetsa jwang
096_0441 madison square garden
096_0442 boqwabi
096_0444 tailor
096_0445 internet protocol suite
096_0446 american male singers
096_0450 setefikeiti sa boingodiso ba koloi
096_0455 big bang model
096_0456 french west africa
096_0457 ha eba o hloleha ho
096_0459 e le hore ba tle
096_0461 sebediswa ho laola lebelo la
096_0467 national football team
096_0473 metsimaholo
096_0476 empire
096_0479 united states president
096_0480 bill
096_0481 southwestern united states
096_0482 bridgeport
096_0483 court ha e le traste
096_0490 human development index
096_0491 best supporting actor
096_0492 ya poso e sa risefuwang
096_0493 e tla fapana ka ho
096_0497 la provinse kapa la naha
096_0500 a ka nna a fafatswa
096_0501 thibelang lefu ka mora ketsahalo
096_0502 ho ngodisa jwalo ka setsebi
096_0503 liberal arts college
096_0506 a hlahisa dikgwebo tsa tsona
096_0508 station
097_0001 ya south african revenue service
097_0012 european union member
097_0016 nakong ya dikgwedi tsa hlabula
097_0022 california state university
097_0033 hubble space telescope
097_0039 ya bt papisong le mekgwa
097_0042 phahameng ya poone le mmaraka
097_0043 ho ngodisa setsi sa tlhahlobo
097_0047 pimville
097_0049 high middle ages
097_0056 larry
097_0062 international astronomical union
097_0065 pope benedict
097_0072 religious
097_0076 notable examples include
097_0079 melbourne football club
097_0082 old east norse
097_0084 united states air
097_0086 valence bond theory
097_0090 pro football hall
097_0091 frank lloyd wright
097_0092 ba ratang naha ya habo
097_0094 king james version
097_0098 petroleum exporting countries
097_0099 bo botjha le ho sebedisa
097_0106 islamic conference oic
097_0109 early morning hours
097_0110 northern mariana islands
097_0112 baemedi ba porofensi ho ncop
097_0114 tlameha ho balwa ka botebo
097_0115 meade
097_0117 state university alumni
097_0119 dikgopo tsa mahlaku hloohong ya
097_0120 motherwell
097_0124 united nations high
097_0125 western united states
097_0128 video game developers
097_0129 clarify date march
097_0130 haufi tsa ntshetsopele ya setjhaba
097_0132 random access memory
097_0134 mahola ke sera sa pele
097_0137 states unemployment rate
097_0140 botoloki ka mohala tsa afrika
097_0141 persian gulf states
097_0142 roman catholic archbishops
097_0143 open source initiative
097_0150 sexually transmitted diseases
097_0152 weposaeteng ya lefapha la temo
097_0154 war political
097_0157 aung san suu
097_0158 sound
097_0160 asian financial crisis
097_0162 billion years ago
097_0166 united states began
097_0169 seetebosigo
097_0172 tlameha ho felehetsa kopo ka
097_0173 of access to information act
097_0176 kopo e tlameha ho felehetswa
097_0181 tlhahisoleseding e fumanwe bukaneng ya
097_0183 sena se ka qetella ka
097_0188 park
097_0190 ho bohlokwa ka ho fetisisa
097_0191 ho tswela pele ho ya
097_0193 mme ho tla ya ka
097_0194 general public license
097_0196 balemi ba ntseng ba thuthuha
097_0197 austrian school economists
097_0198 tshebediso e phahameng ya sesebediswa
097_0199 western european countries
097_0200 bethal
097_0201 rephaboliki
097_0205 american sign language
097_0207 fane ka nomoro ya akhauntu
097_0209 catherine
097_0212 rapid economic growth
097_0214 petroleum exporting countries
097_0218 ka nna a ba le
097_0219 ya makgulo bakeng sa kgwebo
097_0220 re tla tswela pele ka
097_0221 knights grand cross
097_0223 kopanelo ya boitshwaro bo botle
097_0224 khopi e netefaditsweng ya bukana
097_0227 roodepoort
097_0231 tse seng di ile tsa
097_0239 ho ya ho se seng
097_0246 ford motor company
097_0251 fihlwang ho yona ya mohlahisi
097_0257 setsheng sa bafu sa poraefete
097_0259 dennilton
097_0261 lefatshe la polasi le nang
097_0264 dipalopalo
097_0267 puo ya bajete le setatemente
097_0269 dikgeong tsa mesebetsi ya sehlopha
097_0270 american political writers
097_0271 african unity oau
097_0275 new testament canon
097_0280 merafong le temong bakeng sa
097_0282 nebula award winning
097_0287 ho kganna ya borutehi bo
097_0291 kopo ya phemiti ya phapanyetsano
097_0293 mabapi le maemo a setjhaba
097_0297 le ngodisitsweng mona afrika borwa
097_0304 united states government
097_0308 sebaka moo sepudutsi se ke
097_0309 ditlhaloso tsa lengolo la truste
097_0310 ka puo la afrika borwa
097_0312 tlameha ho ba karolo ya
097_0313 itseng ntle le ho ama
097_0314 kgothalletswa ho ithuta dipuo tse
097_0320 aterese le nomoro ya mohala
097_0322 american musical theatre
097_0325 functional programming languages
097_0327 ho beha leihlo tshebediso ya
097_0333 grand
097_0334 president harry
097_0338 sa moralo wa puo ho
097_0341 royal dutch shell
097_0342 e bile wa bohlokwa ho
097_0343 republican party united
097_0344 leng hore ha ho hlokehe
097_0347 cognitive behavioral therapy
097_0348 grisly
097_0349 clarify date february
097_0350 boston red sox
097_0352 garrick
097_0353 dikgatiso tsa tshebediso ya dipuo
097_0355 average life expectancy
097_0356 mabapi le tshireletso ya dijo
097_0360 a hlahisa dikgwebo tsa tsona
097_0362 ha o a dumellwa ho
097_0363 leondale
097_0371 episcopal church usa
097_0372 leo mobu o leng ho
097_0374 army occupied cypriot
097_0375 mane ho isa ho a
097_0376 inshorense ya tse sebediswang mobung
097_0381 ba le seabo ha basadi
097_0385 palestinian national authority
097_0395 sebokeng sa naha bakeng sa
097_0399 ho sebedisa thaere e kgolwanyane
097_0401 tshwanela ho etsa kopo ya
097_0404 music awards winners
097_0405 monetary fund imf
097_0407 tsa lehae provinseng eo o
097_0411 ka moo ho ka kgonehang
097_0416 box office success
097_0417 american voice actors
097_0418 major professional sports
097_0426 tse haufi tsa ntshetsopele ya
097_0427 osama bin laden
097_0430 ho etsa diteko tsa hiv
097_0431 sebediswang wa ho phethola mobu
097_0433 europe music
097_0437 nobel prize winners
097_0443 nang le tokelo ya ho
097_0446 tlhekelo ka letona la bonono
097_0447 boyce
097_0452 di ka qojwang ka teng
097_0453 di ka nna tsa fetoha
097_0454 theko ya sehlahiswa le bongata
097_0455 tla neha ba leloko sebaka
097_0458 ho mokga o laolang wa
097_0460 mmala o motsho le bosweu
097_0464 game boy advance
097_0467 imperial japanese navy
097_0468 ludwig von mises
097_0472 black sea coast
097_0473 ka hlaloswa ka mokgwa o
097_0475 le tumello e ngotsweng fatshe
097_0477 ho feta ka moo ho
097_0483 hard disk drive
097_0489 security assistance force
097_0493 le hore re kgone ho
097_0494 dubious date april
097_0496 south sandwich islands
097_0500 sa silafatsa phepelo ya metsi
097_0502 winter olympic games
097_0505 american musical theatre
098_0001 ka dikopi tse tiiseleditsweng tsa
098_0005 power parity comparisons
098_0007 phepelo ya dijo tsa polasing
098_0016 khampani ya ba mmalwa e
098_0018 durban
098_0024 bafta winners people
098_0025 new york yankees
098_0027 buddhism
098_0030 supreme allied commander
098_0035 san francisco giants
098_0037 big bang model
098_0041 royal albert hall
098_0044 protea
098_0052 chancellorsville
098_0060 mmalwa le traste ditho tsohle
098_0062 leng se bolelang hore ho
098_0063 american psychiatric association
098_0066 award winning authors
098_0067 russian civil war
098_0068 man
098_0071 ho tholwa ha ngwana ka
098_0074 lekgotleng la dinyewe ho tla
098_0076 midrand
098_0077 early church fathers
098_0079 ba ngodise ho south african
098_0081 e kenella tlase mobung le
098_0088 seboka sa naha le lekgotla
098_0089 screen actors guild
098_0091 org wiki wikipedia
098_0093 miller's
098_0098 mahola e tshwanetse ho etswa
098_0099 tshebedisano e kwetsweng e lefa
098_0101 bill
098_0103 ha puo e lahlehelwa ke
098_0104 sebetsa jwalo ka borasaense ba
098_0105 a diphoofolo tsa afrika borwa
098_0106 hore mobu o na le
098_0108 european economic area
098_0110 le eneji le la dikgwebo
098_0111 tse phahameng tsa taolo ka
098_0112 ha eba kere e potolohisang
098_0115 foreign direct investment
098_0117 ke ke wa kgona ho
098_0118 red blood cells
098_0129 formal diplomatic relations
098_0134 internet protocol suite
098_0140 holy hand grenade
098_0143 o okina ahu
098_0144 mesebetsi efe ya ho mmaraka
098_0149 randfontein
098_0154 ya sefafatsi se fatshe sa
098_0157 military coup
098_0160 ho suthisa ka ho ya
098_0161 ka bonyane dipuo tse tsheletseng
098_0164 hospital
098_0171 john
098_0173 bad
098_0175 french west africa
098_0176 motor vehicle manufacturers
098_0182 poids et mesures
098_0184 recent common ancestor
098_0185 saint john river
098_0189 ya rona ya puo le
098_0191 tsitsitseng mmusong maemong le ha
098_0192 history
098_0195 tse felletseng tsa moo ho
098_0197 palestine liberation organization
098_0200 ha eba o hloleha ho
098_0201 setefikeiti sa boingodiso ba koloi
098_0204 nuclear test ban
098_0206 e tswang ho registrar of
098_0208 citation needed april
098_0209 neelane ka kopo ya hao
098_0210 nako e hlokolosi e ka
098_0211 american jewish people
098_0212 etsa boipiletso ho letona la
098_0214 tla tsamaelana le molao wa
098_0215 mokgatlo o emetseng basebeletsi tumellanong
098_0216 ka mokgwa o nepahetseng nakong
098_0217 leqephe la pele la foromo
098_0218 tlasa bolaodi ba mmuso wa
098_0220 recreation
098_0221 la provinse kapa la naha
098_0222 o na le diterekere le
098_0223 di tswela pele ho sa
098_0227 seng feela ke ba buang
098_0229 ding le tse ding tse
098_0230 fiction television series
098_0231 o motsho le o mosweu
098_0232 best foreign language
098_0233 human development index
098_0234 e fumaneha ka potlako weposaeteng
098_0238 madison square garden
098_0240 july
098_0242 free methodist church
098_0246 fifa world cup
098_0256 feteng dikgwedi tse tharo kapa
098_0258 october
098_0260 ya ho jala dijothollo tse
098_0262 north west company
098_0266 ho tloha sebopehong sa kgale
098_0267 ka ntle ya batlang ho
098_0268 army air corps
098_0269 dingane
098_0273 dutch east india
098_0276 a lehodimo nakong ya tshebediso
098_0278 ya hae ntle ho lebaka
098_0279 high seas fleet
098_0281 o ile a fana ka
098_0286 african
098_0287 tse ding le tse ding
098_0288 ya poso e sa risefuwang
098_0291 empire
098_0298 e ka nna yaba o
098_0302 leng le le leng kapa
098_0303 articles including recorded
098_0304 senqu
098_0305 states environmental protection
098_0308 average family size
098_0319 junior high school
098_0323 bilateral immunity agreement
098_0325 nelson mandela le thabo mbeki
098_0326 fact date march
098_0330 congressional gold medal
098_0333 eighty years war
098_0338 le dipehelo tse ding tse
098_0340 american film producers
098_0341 united states president
098_0343 great lakes region
098_0344 boqwabi
098_0345 primitive recursive functions
098_0347 national football team
098_0357 modern orthodox judaism
098_0363 roman catholic priests
098_0364 van der waals
098_0366 science fiction novel
098_0370 basebeletsi ba hao le dijothollo
098_0371 le hore re tle re
098_0373 sebediswa ho laola lebelo la
098_0374 l cuin abbr
098_0376 strong nuclear force
098_0377 feta pele hore ho na
098_0379 international atomic energy
098_0383 red blood cells
098_0384 united states senate
098_0390 le ho tempuwa ke mosebeletsi
098_0391 hore ditokomane tsa mmuso ha
098_0392 monroe
098_0393 cathode ray tube
098_0394 common law jurisdictions
098_0395 gibbon
098_0396 american male singers
098_0397 sa witblits se neng se
098_0399 national science foundation
098_0400 ho lefa molato wa hao
098_0401 ba bangata ba ile ba
098_0402 ofisi ya lefapha le haufi
098_0403 batsi mabapi le sekgahla sa
098_0404 tailor
098_0405 baka mathata temong ya dijothollo
098_0406 magnetic resonance imaging
098_0407 ntshetsopele ya dipeo tsa oli
098_0408 setsi se haufi sa mesebetsi
098_0409 ka nngwe e na le
098_0410 church turing thesis
098_0411 disebediswa tse seng di ile
098_0413 bakeng sa nako e kgutshwane
098_0414 ka morero wa ho matlafatsa
098_0415 league baseball team
098_0418 potter's
098_0419 federal trade commission
098_0420 convention
098_0422 system
098_0423 complaints
098_0424 harry
098_0426 bay
098_0427 manejara wa lebatowa a ananela
098_0428 sepolesa sa aforikaborwa e lefe
098_0429 seng le lefilwe bakeng sa
098_0430 united states
098_0431 tlhahiso ya poone le soneblomo
098_0432 court ha e le traste
098_0433 a na le tokelo ya
098_0434 efe kapa efe eo ho
098_0435 seo o hopotseng ho se
098_0437 september
098_0438 o ne a atisa ho
098_0439 tlamehile maoto le matsoho ho
098_0440 ya selemo kapa ya sehla
098_0442 motho ya tshwereng thaetlele kapa
098_0443 tswela pele ka mokgwa wa
098_0444 sireletsa le ho matlafatsa botsebi
098_0445 ba ka hodimo ho dilemo
098_0446 o neng o rena ditherisanong
098_0447 proffesor
098_0448 original game boy
098_0449 tlwaelo e ke ke ya
098_0451 bakeng sa nako ya boholo
098_0452 e le kgolo ho eo
098_0453 ya ngaka ya diphoofolo ya
098_0455 central
098_0456 new york jets
098_0457 nfc championship game
098_0458 haholo ke moruo wa tsona
098_0459 kgone ho tswela pele ka
098_0461 kopo ya laesense ya sekepe
098_0462 kgahlanong le dikgoka ho basadi
098_0463 se fetileng sa hlabula e
098_0464 ya etsang kopo ya tokomane
098_0465 bridgeport
098_0468 ba lefapha la ditaba tsa
098_0469 ya ho ba teng ha
098_0470 le o mong o na
098_0471 united states army
098_0472 hlahisa dijothollo di phahame haholo
098_0473 randburg
098_0474 motho ka mong o tlamehile
098_0475 e ne e se e
098_0477 ya mobu bakeng sa ntshetsopele
098_0479 golden globe film
098_0481 southwestern united states
098_0482 valhalla
098_0484 ka ba ka mokgwa wa
098_0487 moscow state university
098_0489 dikarolo dife kapa dife tse
098_0490 balemi ba batjha ba ka
098_0491 tsosoloso ya boemo ba theshiari
098_0495 wa etsa tshebetso tsa kgwebisano
098_0496 sam
098_0497 ho ntse ho na le
098_0498 lenane la batho ba e
098_0499 motho ofe kapa ofe a
098_0500 ho ngodisa jwalo ka setsebi
098_0501 ho isa ho tse nne
098_0502 tsa mokgatlo kapa mokgatlo wa
098_0503 clarify date february
098_0510 ya nka bolelele ba dibeke
098_0517 national baseball hall
098_0520 united states district
098_0521 liberal arts college
098_0525 hloka tumello e ikgethang e
098_0526 le moemedi wa afrika borwa
099_0001 boramesebetsi ba lokela ho saena
099_0003 bo botjha le ho sebedisa
099_0004 ya boitsebiso kapa setifikeiti sa
099_0005 chinese communist party
099_0006 samuel's
099_0008 palamente ya rephaboliki ya afrika
099_0012 european union member
099_0013 ka hlaloswa ka mokgwa o
099_0014 ka moo ho ka kgonehang
099_0015 box office success
099_0016 ancient near east
099_0018 ho ngodisa setsi sa tlhahlobo
099_0019 nyetsweng eo mohatsae e leng
099_0020 ho sebedisa thaere e kgolwanyane
099_0022 ka mokgwa o hlwahlwa ho
099_0023 ba ratang naha ya habo
099_0024 kenya tshebetsong mokgwa wa ho
099_0025 kuno e phahameng ya dijothollo
099_0026 united states dollar
099_0028 dennilton
099_0029 nakong ya matsatsi a balemi
099_0031 human rights record
099_0033 mabapi le maemo a setjhaba
099_0034 puo ya bajete le setatemente
099_0036 khampani kapa khampani ya ba
099_0038 ho itsebisa jwalo ka ntate
099_0039 tse ikgethileng tsa kgatello di
099_0040 motho ya jwalo ha se
099_0041 black sea coast
099_0042 mong le e mong ya
099_0045 old garden roses
099_0046 ke sesebediswa se sebetsang ka
099_0047 seetebosigo
099_0048 king james version
099_0050 eldorado
099_0051 austrian school economists
099_0052 british foreign secretary
099_0053 clarify date november
099_0054 moo e leng hore ho
099_0056 dikokwanyana ka thibelo ya mefuta
099_0057 american television actors
099_0058 mekgatlo e adimanang ka tjhelete
099_0059 mona afrika borwa e lokelwa
099_0060 john von neumann
099_0061 united states government
099_0062 dintho ka mokgwa o sa
099_0065 matsatsi a leshome eo ka
099_0067 fane ka nomoro ya akhauntu
099_0068 ya naha e tshwereng motho
099_0071 german air force
099_0072 ludwig von mises
099_0074 functional programming languages
099_0078 war political
099_0080 ba mmalwa le traste ditho
099_0081 ya tswelang pele ka mosebetsi
099_0083 major professional sports
099_0084 royal dutch shell
099_0086 tlhekelo
099_0087 billion years ago
099_0090 london
099_0096 episcopal church usa
099_0097 le tumello e ngotsweng fatshe
099_0098 ho tshela oli e ntjha
099_0099 bahlokomedi ba bona ba molao
099_0100 video game developers
099_0101 reef
099_0103 tswa dinaheng tsa ka ntle
099_0104 e netefaditsweng ya bukana ya
099_0105 botoloki ka mohala tsa afrika
099_0106 hong kong island
099_0107 game boy advance
099_0109 temeng ya saense ya lekgotleng
099_0110 tsamaiso ya sehlopha sa boithuto
099_0111 ke notary public kapa mokhomishenara
099_0112 american musical theatre
099_0113 winter olympic games
099_0114 western european countries
099_0115 ke mang ya ka etsang
099_0117 hlahisa ditabatabelo le mehopolo ya
099_0118 sefe sa tlhahlobo ya laesense
099_0119 ferry
099_0122 sa ho ba le seabo
099_0125 grand
099_0126 roodepoort
099_0127 e etsa bonnete ba hore
099_0130 gcis e ka fana ka
099_0131 religious
099_0132 dipalopalo
099_0134 le mekgwa e meng ya
099_0135 aung san suu
099_0138 ya hao e tla lekolwa
099_0140 ba puo e tla hloka
099_0145 united states federal
099_0147 northern
099_0148 mane ho isa ho a
099_0150 union member states
099_0151 ya makgulo bakeng sa kgwebo
099_0152 tshwanela ho etsa kopo ya
099_0154 tekolo botjha ya ditlwaelo le
099_0156 monetary fund imf
099_0157 eo e leng karolo ya
099_0158 essential fatty acids
099_0161 native american tribes
099_0163 make extensive use
099_0168 dikgeong tsa mesebetsi ya sehlopha
099_0169 sexually transmitted diseases
099_0171 ya beke le beke ya
099_0173 ba badudi ba saruri ba
099_0177 o lokela ho etsa kopo
099_0178 david
099_0179 ka nna a ba le
099_0180 california state university
099_0181 random access memory
099_0182 notable examples include
099_0183 kopo ya ho ngodisa khampani
099_0185 security assistance force
099_0188 tlhahisoleseding e fumanwe bukaneng ya
099_0189 cognitive behavioral therapy
099_0190 average life expectancy
099_0191 republican party united
099_0192 ka puo la afrika borwa
099_0193 kansas state university
099_0194 tlosa pompo pele ba ilo
099_0196 missing living people
099_0198 american sign language
099_0201 aterese le nomoro ya mohala
099_0203 motherwell
099_0204 lengolo la tumello haeba o
099_0208 american nobel laureates
099_0210 etsa hore a kgone ho
099_0211 setsheng sa bafu sa poraefete
099_0212 kapa tokomane efe kapa efe
099_0214 ofisi ya iss ya afrika
099_0216 yona ha feela le tla
099_0219 foromo ya kopo ka dikopi
099_0220 lokela ho phatlalatsa ditokomane hanghang
099_0221 tse seng di ile tsa
099_0222 hloleha ho etsa jwalo ho
099_0224 tse ka hodimo ho tse
099_0225 ho thola ngwana ka molao
099_0226 social democratic party
099_0227 moahi wa afrika borwa kapa
099_0228 ya hao ya taelo ya
099_0229 inshorense ya tse sebediswang mobung
099_0230 ho feta ka moo ho
099_0231 ba bolaodi ba bophelo bo
099_0232 bakeng la tsebo ya mosebetsi
099_0233 nobel prize winners
099_0234 american science fiction
099_0237 ho ngodisa khampani e poraefete
099_0240 moya wa ho etsa dintho
099_0241 catherine
099_0242 rapid economic growth
099_0243 wayne state university
099_0244 fact date july
099_0245 o le moahi wa afrika
099_0246 le haufi le la sars
099_0247 dilemong tse mmalwa tse fetileng
099_0248 states district court
099_0249 ba teng ka dipuo tse
099_0250 mafelong a kgwedi e nngwe
099_0251 south
099_0252 ho etsa diteko tsa hiv
099_0253 george
099_0254 ka potlako ka ho ya
099_0255 guru granth sahib
099_0256 matsatsi a seng ka tlase
099_0257 memphis
099_0258 lengolo le tswang ho setho
099_0259 frank lloyd wright
099_0260 international astronomical union
099_0261 kapa o tshwerwe tlasa mental
099_0262 kopo e ka se elwe
099_0263 hlalositsweng bakeng sa ditjhelete tse
099_0264 boston red sox
099_0265 wa provinse ya bophelo bo
099_0269 leo mobu o leng ho
099_0270 ke wa qobella molemi ho
099_0272 american voice actors
099_0275 mokopi le mohatsa hae ba
099_0276 o nka kilograma e le
099_0281 leondale
099_0285 ya hao setatementeng sa banka
099_0286 new york jets
099_0288 eo ba nang le yona
099_0289 tsebiso ya lefapha le molaong
099_0290 united states navy
099_0291 new testament canon
099_0293 borwa di tlameha ho ngodiswa
099_0295 old east norse
099_0296 day saint movement
099_0297 kopo ya phemiti ya phapanyetsano
099_0298 nna tsa kgannela tshenyong e
099_0299 close air support
099_0300 arizona state university
099_0301 fact date january
099_0302 north west company
099_0303 malwetse a pustule a bakwang
099_0304 ya hao ka tsela ya
099_0305 tse ntjha tsa ho banka
099_0306 tone ka nngwe ho tsamaisa
099_0307 hang ka selemo ka mora
099_0308 kopanelo ya boitshwaro bo botle
099_0309 wa batswadi kapa mohlokomedi wa
099_0310 sehla se hlahlamang sa ho
099_0311 saense ya lekgotleng la molao
099_0312 phetoho efe kapa efe e
099_0313 di ka qojwang ka teng
099_0314 persian gulf states
099_0317 imperial japanese navy
099_0320 knights grand cross
099_0321 united arab emirates
099_0322 ludwig von mises
099_0323 ice hockey team
099_0324 roman catholic archbishops
099_0325 kgothalletswa ho ithuta dipuo tse
099_0326 bontshang kamano pakeng tsa theko
099_0329 etsa diketso tse hlabisang dihlong
099_0330 nka matsatsi a fihlang ho
099_0332 grisly
099_0333 moo o ile wa sebediswa
099_0334 e felletseng ya kgatiso tsa
099_0335 hubble space telescope
099_0337 masimo a mang le a
099_0338 boafrika borwa ba rona bo
099_0339 ka rakonteraka o na le
099_0342 di fetwa ka bohlwahlwa ke
099_0343 nyetseng nyetsweng eo mohatsae e
099_0344 dubious date april
099_0345 polasi le nang le boleng
099_0346 tsa diporofensi di a nahanwa
099_0347 phasepoto ya hao ya afrika
099_0349 meade
099_0350 afrika borwa jwalo ka ha
099_0351 music awards winners
099_0352 british west indies
099_0353 le nngwe feela afrika borwa
099_0355 tshwaneleha ka mora nako e
099_0356 institjhute
099_0357 united states began
099_0358 le hore re kgone ho
099_0359 ya ho ba teng ho
099_0360 state university alumni
099_0361 tlameha ho ba karolo ya
099_0363 wa diphoofolo kapa bolaodi bo
099_0364 ya b di be tharo
099_0365 la mokopi kapa lebitso la
099_0366 tshenyo e kgolo dimeleng tse
099_0368 francisco bay area
099_0369 management
099_0370 ka tsela efe kapa efe
099_0371 semmuso ya lekgetho e ka
099_0372 marcel
099_0373 lokela ho lefa lekgetho la
099_0374 professional american football
099_0375 united states declaration
099_0376 ebe o nka kilograma e
099_0377 mmala o motsho le bosweu
099_0378 ba le seabo ha basadi
099_0379 western united states
099_0380 park
099_0381 rona ba ho lwantsha botlokotsebe
099_0382 tiisitse hore ha ho hlwahlwa
099_0385 atlantic
099_0386 europe music
099_0388 le haebe ho boletswe ka
099_0390 internal combustion engine
099_0392 ba dilemo tse ka hodimo
099_0393 tlameha ho felehetsa kopo ka
099_0394 n g rjuna
099_0395 ka ntle eo e leng
099_0396 dintlha dife kapa dife tse
099_0397 hang ha ho se ho
099_0398 chinese civil war
099_0399 tshebetso tsa lekgetho la kuno
099_0400 ramolodi
099_0402 efe kapa efe ya yona
099_0403 ditshebeletso tsa sepolesa sa afrika
099_0404 a mmalwa ho ya dibekeng
099_0405 ka mora nako e itseng
099_0406 ka hara lekgotla la naha
099_0407 di ka nna tsa fetoha
099_0408 extension
099_0409 e batlang e le ntle
099_0410 tsamaiso ya mawatle le mabopo
099_0411 ha eba poone e iswa
099_0412 haufi tsa ntshetsopele ya setjhaba
099_0413 ba hore o na le
099_0414 mabapi le puo tsa lefapha
099_0415 la nakwana le lokelwang ho
099_0416 central processing unit
099_0417 ho ya ka dipehelo tsa
099_0418 islamic conference oic
099_0419 ho kenyelletswa le ditaba tse
099_0420 jwalo ka o motjha mme
099_0421 ka mokgwa ofe kapa ofe
099_0422 hauhelele
099_0423 tsa ho lefa ka mora
099_0424 ho tla nne ho dule
099_0426 ford motor company
099_0427 pro football hall
099_0428 ke boikarabelo ba moahi e
099_0430 tshebediso e sa lokang ya
099_0431 a sa siya wili e
099_0432 section e ka fana ka
099_0433 guano islands act
099_0434 ka ho etsa kopo ya
099_0435 pope benedict
099_0436 na le tshepo ya hore
099_0438 american short story
099_0439 nang le tokelo ya ho
099_0440 eo ho dumellanweng ka yona
099_0441 garrick
099_0442 pele ho ka jalwa sejothollo
099_0443 ho bonahala eka ha ho
099_0447 western united states
099_0448 ho fela ho potlakileng ha
099_0450 united states air
099_0451 e tshwanetse ho phethwa ka
099_0452 thuto ya kalafo ya tsa
099_0453 mokga oo a etsang kopo
099_0454 high middle ages
099_0456 real gdp growth
099_0457 ya ba mmalwa e ngodisitsweng
099_0458 nka nako e ka etsang
099_0459 jwalo ka ha ho bontshitswe
099_0462 positive real numbers
099_0463 pakeng tsa batho ba babedi
099_0464 e leng commission for conciliation
099_0465 ka puo ya kgetho ya
099_0466 american musical theatre
099_0468 baemedi ba porofensi ho ncop
099_0469 dife kapa dife tse amanang
099_0471 form hydrogen bonds
099_0472 jewish american writers
099_0473 kansas city royals
099_0474 le kgahleho bophelong ba motletlebi
099_0475 mokgwa o sa tlwaelehang re
099_0476 phemiti ya ditswantle ya bongaka
099_0478 bahwebi ba sa sebedise tlwaelo
099_0480 petroleum exporting countries
099_0481 president harry
099_0482 mme ho tla ya ka
099_0483 ho ntlafatsa boleng ba bophelo
099_0484 tse haufi tsa ntshetsopele ya
099_0485 ho tswa ho moabi ya
099_0486 comic book series
099_0487 motho ofe kapa ofe eo
099_0488 of access to information act
099_0489 treaty organization nato
099_0490 ya foromo ena e fuwe
099_0491 asian financial crisis
099_0492 hard disk drive
099_0493 letowana
099_0495 diporofensi di a nahanwa boemong
099_0496 sound
099_0498 osama bin laden
099_0499 monyakeng
099_0500 wa setjhaba lawrence mushwana o
099_0501 tla tswela pele ho sebetsa
099_0502 received mixed reviews
099_0505 batho ba bang ke ba
099_0506 dutton
099_0507 ha ba hloke ho ntsha
099_0508 ho sebetsa le dinaha tse
099_0509 ya moithuti e le yona
099_0510 abdur rahman khan
099_0511 nna ha etsahala hore o
099_0512 ba eba siyo lebatoweng leo
099_0514 states presidential candidates
099_0515 president
099_0516 tswang dipuong tsa sehlopha sa
099_0518 lebitsong la motho e mong
099_0519 ho hlaha letloleng la dipenshene
099_0520 north germanic languages
099_0521 lekgotla la afrika borwa la
099_0522 tla amohelwa jwalo ka setswantle
099_0523 social democratic parties
099_0524 haeba motsekiswa a hloleha ho
099_0526 etsa kopo ya ho busetswa
099_0527 la dithuto la afrika borwa
099_0528 le tlhokeho e potlakileng ya
099_0529 batho ba afrika borwa bao
099_0530 dipehelo tsa leano di ka
099_0531 final resting place
099_0532 tlameha ho tlatswa ke mokopi
099_0533 los angeles county
099_0534 edwin
099_0535 lebanese armed forces
099_0536 mtv video music
099_0537 qhamakwane
099_0538 ho nehelana ka tshebeletso ya
099_0539 le balemi ba ntseng ba
099_0541 seteisheneng sa mapolesa se haufi
099_0542 pele ho ngodiso ho ya
099_0545 boahi ba bona ba naha
099_0546 mister
099_0548 dibeke tse pedi ho ya
099_0549 boemong bo hodimo bakeng la
099_0551 leanong la naha la puo
099_0552 sebakeng seo ho sona disebediswa
099_0554 german air force
099_0555 italian roman catholics
099_0556 le hore hara mananeo a
099_0558 test ban treaty
099_0559 borwa a ka ba teng
099_0560 dikarolong tsa yona tsa metso
099_0562 ha jwale e amanang le
099_0563 di fapana ho ya ka
099_0565 le mesebetsi e mabapi le
099_0568 wa afrika borwa ntle le
099_0570 badudi ba saruri ba batlang
099_0571 mohahamoriti
099_0573 pope urban
099_0576 bo le ka tlase ho
099_0580 kopo ya ho tholwa ha
099_0581 dikri diploma ya dilemo tse
099_0584 eo ho fihlwang ho yona
099_0586 mang a na le dikotola
099_0588 sehlopha sa tshebetso sa moralo
099_0589 le dimela mabapi le mongobo
099_0590 o loketseng tlhahiso ya dijothollo
099_0591 hore ho teng balemi ba
099_0593 kutu
099_0594 empa re ke ke ra
099_0599 o ka nna wa fafatsa
099_0600 ho hlwaya tefo ya hao
099_0602 a saense a hlapi e
099_0604 supreme court justice
099_0605 ya jwalo ha se mang
099_0607 mathata a phepelo ya motlakase
099_0608 ke e nngwe ya dintlha
099_0609 diphaphosing tsa borutelo ka nako
099_0610 e nngwe ho ya ho
099_0611 itshebetsang puong jwalo ka bafetoledi
099_0612 world trade center
099_0613 a ka etsa kopo ya
099_0614 ridgeway
099_0616 le ba nang le seabo
099_0617 civil class
099_0618 folaga e ntle ka ho
099_0619 education
099_0620 lebitso la seteishene sa mapolesa
099_0623 british west indies
099_0624 san pedro sula
099_0625 association football clubs
099_0626 sebedisa lebitso le molaong le
099_0627 sherman's
099_0629 ho etsa qeto mabapi le
099_0631 tse nyenyane le tse mahareng
099_0632 lengolo la bopaki la phytosanitary
099_0633 dipaterone tsa pula le ho
099_0634 abednego
099_0637 melongwana e seng e kgathetse
099_0638 lokela ho tlatswa ke bajalefa
099_0639 hlakola le efe e sa
099_0641 bonaparte
099_0642 etsa hore o kgone ho
099_0646 ya bt di tshwanetse ho
099_0648 belfast
099_0650 richmond
099_0651 ho tsamaya sebakeng seo feberu
099_0652 ke ho fihlela ho latelang
099_0655 rugby union team
099_0657 mme o e tlatse ka
099_0659 rock music groups
099_0660 ho etsa ditokiso tse hlokahalang
099_0661 tekolo botjha ya tshebetso tsa
099_0665 o metha peo le manyolo
099_0667 ya ho a mararo a
099_0668 a re nke hore bolelele
099_0671 tsa pele tsa mabitso le
099_0672 botlhokong
099_0673 ha monga thepa a rata
100_0003 ho ntse ho na le
100_0004 hartbeespoort
100_0007 e nang le share capital
100_0009 recreation
100_0011 van der waals
100_0018 united states senate
100_0019 roman catholic priests
100_0022 ho tloha sebopehong sa kgale
100_0023 o okina ahu
100_0025 tlhokeho ya mosebetsi wa ho
100_0027 bridgeport
100_0029 le ho tloswa ha matlakala
100_0035 tsa lekgetho di ka phethahatswa
100_0039 ntshetsopele ya dipeo tsa oli
100_0042 european economic area
100_0043 ho sireletsa le ho matlafatsa
100_0045 sebedisa tlhahisoleseding e kentsweng ke
100_0047 maseru
100_0056 be bonolo ho palama baesekele
100_0057 award winning authors
100_0059 foreign direct investment
100_0062 history
100_0063 church turing thesis
100_0064 hlahisa dijothollo di phahame haholo
100_0067 human development index
100_0068 military coup
100_0070 central
100_0076 lekgotla la ho ntshuwa ha
100_0077 etsa kopo ya ho ngodisa
100_0078 tlhahiso ya poone le soneblomo
100_0079 sa witblits se neng se
100_0080 ke ke wa kgona ho
100_0083 man
100_0085 motho a tshwerweng ho yona
100_0088 north germanic languages
100_0090 ya ho ba teng ha
100_0091 boqwabi
100_0092 congressional gold medal
100_0093 tumello e ngotsweng fatshe e
100_0095 mang ya ikemiseditseng ho nehelana
100_0099 south asian association
100_0101 ho suthisa ka ho ya
100_0102 leqephe la pele la foromo
100_0103 seng feela ke ba buang
100_0107 harry
100_0108 midrand
100_0109 lekgotleng la dinyewe ho tla
100_0111 baka mathata temong ya dijothollo
100_0112 aterese ya moo o dulang
100_0113 united states president
100_0114 madison square garden
100_0115 mesebetsi efe ya ho mmaraka
100_0116 president george
100_0119 buddhism
100_0120 bragg
100_0121 supreme allied commander
100_0125 recent common ancestor
100_0126 ya ngaka ya diphoofolo ya
100_0127 gibbon
100_0130 hospital
100_0131 tsosoloso ya boemo ba theshiari
100_0132 durban
100_0134 ozone layer protection
100_0135 jwalo ka ha ho hlokeha
100_0138 ho ntsha raporoto ya radiology
100_0140 original game boy
100_0146 fact date march
100_0149 chancellorsville
100_0150 best supporting actor
100_0154 e ntshitsweng ke bolaodi bo
100_0155 randburg
100_0156 american film producers
100_0157 o neng o rena ditherisanong
100_0161 national football team
100_0162 palestine liberation organization
100_0170 miller's
100_0171 hore mobu o na le
100_0173 united states geological
100_0175 golden globe winners
100_0181 eighty years war
100_0184 moscow state university
100_0185 great lakes region
100_0188 poids et mesures
100_0189 ya kopo ofising e haufi
100_0190 ntate wa ngwana ya tswetsweng
100_0201 ya poso e sa risefuwang
100_0203 states environmental protection
100_0204 holy hand grenade
100_0209 russian civil war
100_0215 ba lakatsang ho sebetsa jwalo
100_0220 e tswang ho registrar of
100_0224 american jewish people
100_0226 environmental protection agency
100_0229 lebelo la ho potoloha ha
100_0234 dipeo le dipeo tse hlahang
100_0236 american male singers
100_0237 bay
100_0238 new york jets
100_0239 convention
100_0240 naha ya afrika borwa kapa
100_0244 provenseng kang ho tla ba
100_0245 good
100_0248 september
100_0249 sam
100_0250 se kgethollwe ho ya ka
100_0251 tadimilwe thibelo ya tlhodisano le
100_0253 kapa dife tse amanang le
100_0254 citation needed april
100_0258 free methodist church
100_0261 saint john river
100_0263 american psychiatric association
100_0273 strategic air command
100_0274 common law jurisdictions
100_0281 proffesor
100_0282 ya mahola le dikokwanyana ka
100_0284 tlamehile maoto le matsoho ho
100_0285 san francisco giants
100_0287 argentina ho ya afrika borwa
100_0291 setefikeiti sa boingodiso ba koloi
100_0292 potter's
100_0293 nfc championship game
100_0298 tailor
100_0300 bafta winners people
100_0301 e ya ho lefapha la
100_0303 early church fathers
100_0305 supreme court ruled
100_0306 golden globe film
100_0307 valhalla
100_0310 ha eba o hloleha ho
100_0312 october
100_0315 system
100_0316 naha ya afrika borwa ba
100_0318 hall
100_0321 mabapi le sehla se tlang
100_0322 high seas fleet
100_0323 cathode ray tube
100_0324 tsa larvae hammoho le mahe
100_0326 ntswaki
100_0327 average family size
100_0331 ba ngodise ho south african
100_0332 mmalwa le traste ditho tsohle
100_0336 african
100_0339 united states census
100_0343 articles including recorded
100_0345 internet protocol suite
100_0352 banka
100_0356 kenngwa ha jine ya bt
100_0357 sireletsa le ho matlafatsa botsebi
100_0360 tsebisa ka ho o ngolla
100_0361 seng le lefilwe bakeng sa
100_0362 ka morero wa ho matlafatsa
100_0363 metsimaholo
100_0370 etsa boipiletso ho letona la
100_0372 o motsho le o mosweu
100_0373 screen actors guild
100_0374 power parity comparisons
100_0378 ha ho kgethwa dipuo tseo
100_0380 ho ba teng ha lenaneo
100_0381 fact date august
100_0382 primitive recursive functions
100_0390 wa etsa tshebetso tsa kgwebisano
100_0397 international atomic energy
100_0398 keketseho thekong ya matjhaba e
100_0403 org wiki wikipedia
100_0407 tse phahameng tsa taolo ka
100_0408 diprojeke tsa bohlokwa tsa lenaneo
100_0409 kgahlanong le dikgoka ho basadi
100_0410 mahola e tshwanetse ho etswa
100_0411 ka nngwe e na le
100_0416 monroe
100_0418 efe kapa efe eo ho
100_0419 phethahatso ya leano lena e
100_0420 tshebedisano e kwetsweng e lefa
100_0421 di be tharo mme o
100_0423 bilateral immunity agreement
100_0426 armoured fighting vehicles
100_0427 bill
100_0428 royal albert hall
100_0431 formal diplomatic relations
100_0434 tsena tsohle di ile tsa
100_0435 best foreign language
100_0437 strong nuclear force
100_0439 moo ho ipehilweng ka tsela
100_0442 randfontein
100_0443 ho tholwa ha ngwana ka
100_0444 tlhaho temeng ya saense ya
100_0445 ho se ho kenwe ho
100_0446 maemo ana a mabe a
100_0447 magnetic resonance imaging
100_0448 efe kapa efe e boletsweng
100_0449 modern orthodox judaism
100_0450 ofisi ya lefapha le haufi
100_0452 mahareng a phato ho fihlela
100_0453 nakwana ke ho thusa balefi
100_0454 kgopolo ya hore dihlahiswa tse
100_0458 hangata a na le metso
100_0460 setsi se haufi sa mesebetsi
100_0461 numeric character references
100_0463 tikoloho
100_0464 ya taelo ya tshireletso ya
100_0465 tokomane eo o batlang ho
100_0466 sebetsa jwalo ka borasaense ba
100_0467 terekere le disebediswa tsa polasing
100_0468 ya selemo kapa ya sehla
100_0469 khampani ya ba mmalwa e
100_0471 se fana ka monyetla o
100_0472 o na le diterekere le
100_0473 haufi le wena kapa ba
100_0477 electron transport chain
100_0478 bad
100_0480 law enforcement agencies
100_0481 tswa ho monga setsha seo
100_0484 big bang model
100_0488 seahelo sa ho lokisa tlhapi
100_0489 grammatical
100_0490 complaints
100_0491 ya etsang kopo ya tokomane
100_0492 ho hlokeha lengolo la tumello
100_0495 phemiti ya ho rafa kapa
100_0497 seo a lokelang ho se
100_0498 e nngwe ya tsona e
100_0500 united states district
100_0501 tshwaneleha le moruo wa tshebetso
100_0502 e ngata ho feta e
100_0503 dikgopo tsa mahlaku hloohong ya
100_0508 merafong le temong bakeng sa
100_0510 tsa theko ya sehlahiswa le
100_0511 ya tse romellwang ka ntle
100_0512 a hlahisa dikgwebo tsa tsona
100_0513 ho fumana kalafo ya bongaka
100_0516 sena se ka qetella ka
100_0517 animated television series
100_0521 ka modulasetulo wa sehlopha sa
100_0524 american political writers
100_0525 ya grain sa ya tlhahiso
100_0528 nebula award winning
100_0529 nakong ya dikgwedi tsa hlabula
100_0532 ho sebedisa lebitso le molaong
100_0533 ikopanye le ofisi ya lefapha
100_0534 ntlafatsa polokeho le tshireletso ya
100_0535 mora ho ba kopo ya
100_0536 general public license
100_0541 ho thehwa ha diyuniti tsa
100_0543 leng hore ha ho hlokehe
100_0545 lefuweng bakeng sa tokelo ya
100_0546 ditletlebo
100_0547 billy
100_0548 science fiction hall
100_0549 army occupied cypriot
100_0550 re tla sebetsa ka matla
100_0551 e na le dimojule tse
100_0552 larry
100_0556 ho isa ho tse nne
100_0560 a ka nna a fafatswa
100_0562 clarify date february
100_0563 metsi a ka nnang a
100_0564 national baseball hall
100_0565 rephaboliki
101_0001 randburg
101_0002 jwalo ka ha ho hlokeha
101_0003 mokgwa wa elektroniki kapa khaontareng
101_0004 golden globe winners
101_0006 ka mokgwa o nepahetseng nakong
101_0014 randfontein
101_0015 tswa ho monga setsha seo
101_0016 chancellorsville
101_0017 diprojeke tsa bohlokwa tsa lenaneo
101_0019 ba ka hodimo ho dilemo
101_0020 hartbeespoort
101_0021 org wiki wikipedia
101_0022 modern orthodox judaism
101_0023 man
101_0027 electron transport chain
101_0028 centrally planned economy
101_0029 human development index
101_0030 proffesor
101_0037 midrand
101_0040 tsa taolo ka dikhemikhale le
101_0041 baka mathata temong ya dijothollo
101_0043 batsi mabapi le sekgahla sa
101_0047 empire
101_0053 states environmental protection
101_0054 le reng limited le tla
101_0055 ntswaki
101_0056 american film producers
101_0061 saense ya tlhaho dikri diploma
101_0063 ba ngodise ho south african
101_0064 south asian association
101_0065 nelson mandela le thabo mbeki
101_0067 bafta winners people
101_0071 ho kenngwa tshebetsong ha melao
101_0076 ka ntle ya batlang ho
101_0078 north germanic languages
101_0079 karolong e ka tlase ya
101_0080 tlhahiso ya poone le soneblomo
101_0083 fact date august
101_0084 president george
101_0088 television shows set
101_0090 ho ntsha raporoto ya radiology
101_0091 roman catholic priests
101_0092 convention
101_0093 bill
101_0096 e tla fapana ka ho
101_0098 ya mobu bakeng sa ntshetsopele
101_0100 blood
101_0101 national football team
101_0104 nakwana ke ho thusa balefi
101_0108 foreign direct investment
101_0123 harry
101_0124 potter's
101_0125 ya ho lebela ya bopolesa
101_0131 e nang le share capital
101_0132 grammatical
101_0135 strategic air command
101_0139 dingane
101_0140 screen actors guild
101_0143 history
101_0144 o motsho le o mosweu
101_0147 lekgotleng la dinyewe ho tla
101_0148 bakileng kgatello ya tshebediso ya
101_0151 tadimilwe thibelo ya tlhodisano le
101_0152 september
101_0154 tlasa merero e hlwauweng mona
101_0157 united states census
101_0159 fifa world cup
101_0162 tlhahiso ya dijothollo mobung o
101_0168 ozone layer protection
101_0171 le ho tempuwa ke mosebeletsi
101_0172 bakeng sa nako ya boholo
101_0174 lenane la batho ba e
101_0176 north west company
101_0177 holy hand grenade
101_0179 ka baka hore a lefiswe
101_0181 eo re neng re e
101_0182 protea
101_0183 buddhism
101_0184 leqephe la pele la foromo
101_0187 le o mong o na
101_0188 mmalwa le traste ditho tsohle
101_0189 kopo ya setefikeiti sa ho
101_0190 formal diplomatic relations
101_0191 united states
101_0192 ya poso e sa risefuwang
101_0193 le ho tloswa ha matlakala
101_0194 united states senate
101_0195 bakeng sa nako e kgutshwane
101_0196 gibbon
101_0198 kgothalletsa ka matla tshebediso ya
101_0201 lekgotla la ho ntshuwa ha
101_0202 moscow state university
101_0203 le hore se sebetsa jwang
101_0207 disebediswa tse seng di ile
101_0208 efe kapa efe eo ho
101_0211 ho lefa molato wa hao
101_0216 armoured fighting vehicles
101_0221 madison square garden
101_0225 akhaonteng e latelang ya banka
101_0226 tswela pele ka mokgwa wa
101_0229 ka mokgwa o hlakileng ho
101_0232 cathode ray tube
101_0233 hangata a na le metso
101_0235 bad
101_0237 high seas fleet
101_0239 tsa tokisetso tsa lekgetho di
101_0242 tlhokeho ya mosebetsi wa ho
101_0243 terekere le disebediswa tsa polasing
101_0244 kopi e tiiseditsweng ya bukana
101_0246 l cuin abbr
101_0247 golden globe film
101_0249 bilateral immunity agreement
101_0250 motho ka mong o tlamehile
101_0251 science fiction novel
101_0252 church turing thesis
101_0253 russian civil war
101_0254 moaho wa lekgotla la naha
101_0255 national science foundation
101_0256 moahong wa lekgotla la naha
101_0257 sam
101_0259 argentina ho ya afrika borwa
101_0260 kenngwa ha jine ya bt
101_0264 pakeng tsa dikarolwana tsa mobu
101_0265 ho suthisa ka ho ya
101_0266 ho hlokeha lengolo la tumello
101_0269 tlamehile maoto le matsoho ho
101_0274 october
101_0279 tikoloho
101_0280 system
101_0281 indastering e batsi ya temo
101_0282 average family size
101_0285 new york jets
101_0286 le kgonahalo ya hore batho
101_0287 sa sepolesa sa afrika borwa
101_0289 numeric character references
101_0293 supreme allied commander
101_0294 tjhelete ya hae e kenang
101_0297 poids et mesures
101_0299 tsa larvae hammoho le mahe
101_0301 magnetic resonance imaging
101_0302 miller's
101_0304 moo ho ipehilweng ka tsela
101_0305 international atomic energy
101_0306 ho tshwarella nako e telele
101_0312 laesense ya boditjhaba ya ho
101_0314 san francisco giants
101_0317 tshebedisano e kwetsweng e lefa
101_0318 kamohelo ya ho sebetsa jwalo
101_0320 monroe
101_0321 french west africa
101_0322 a na le tokelo ya
101_0323 sepolesa sa aforikaborwa e lefe
101_0327 ba lakatsang ho sebetsa jwalo
101_0329 la afrika borwa la basebetsi
101_0331 tse ka hodimo tsa mobu
101_0333 united states president
101_0334 madison square garden
101_0335 kapa hofe ho ka bang
101_0339 nfc championship game
101_0340 motor vehicle manufacturers
101_0342 senqu
101_0348 wa etsa tshebetso tsa kgwebisano
101_0350 tailor
101_0351 etsa kopo ya ho ngodisa
101_0352 great lakes region
101_0356 royal albert hall
101_0362 seahelo sa ho lokisa tlhapi
101_0363 ho se na motho ya
101_0364 hore mobu o na le
101_0365 seo o hopotseng ho se
101_0366 law enforcement agencies
101_0370 best supporting actor
101_0372 palestine liberation organization
101_0375 valhalla
101_0378 sebedisa tlhahisoleseding e kentsweng ke
101_0379 best foreign language
101_0381 kgatello ya tshebediso ya mefuta
101_0382 congressional gold medal
101_0383 environmental protection agency
101_0384 american male singers
101_0386 new york yankees
101_0390 junior high school
101_0395 tla tsamaelana le molao wa
101_0402 european economic area
101_0403 ho tloha sebopehong sa kgale
101_0404 la provinse kapa la naha
101_0407 sa witblits se neng se
101_0408 ho se ho kenwe ho
101_0411 common law jurisdictions
101_0414 ditaba tse amanang le molao
101_0415 bridgeport
101_0416 e le kgolo ho eo
101_0418 e tswang ho registrar of
101_0419 articles including recorded
101_0421 internet protocol suite
101_0423 tse felletseng tsa moo ho
101_0425 original game boy
101_0426 primitive recursive functions
101_0428 award winning authors
101_0429 southwestern united states
101_0432 senyesemane
101_0433 united states geological
101_0435 ya hae ntle ho lebaka
101_0437 saint john river
101_0438 early church fathers
101_0439 tsebisa ka ho o ngolla
101_0441 military coup
101_0442 lefapheng la kgwebo le indasteri
101_0443 van der waals
101_0444 feteng dikgwedi tse tharo kapa
101_0445 free methodist church
101_0446 boqwabi
101_0447 power parity comparisons
101_0448 ho sireletsa le ho matlafatsa
101_0449 ka mora kotulo ya koro
101_0451 afrika borwa ba leng mose
101_0452 mesebetsi e itseng ka ho
101_0455 tsosoloso ya boemo ba theshiari
101_0460 aterese ya moo o dulang
101_0463 citation needed april
101_0464 following world war
101_0469 kgopolo ya hore dihlahiswa tse
101_0470 a diphoofolo tsa afrika borwa
101_0471 baheno
101_0475 ofisi ya lefapha le haufi
101_0476 court ha e le traste
101_0477 e leng se etsang hore
101_0479 big bang model
101_0480 tshebetso e etsang hore ho
101_0484 strong nuclear force
101_0485 kapa mokga ofe kapa ofe
101_0489 mang ya ka etsang kopo
101_0491 durban
101_0493 nuclear test ban
101_0494 moo motho a fumanang kuno
101_0498 tumello e ngotsweng fatshe e
101_0500 ntlafatsa polokeho le tshireletso ya
101_0501 clarify date february
101_0503 united states district
101_0504 tsa lehae provinseng eo o
101_0506 tlhekelo ka letona la bonono
101_0507 e na le dimojule tse
101_0510 mahola ke sera sa pele
101_0512 le moemedi wa afrika borwa
101_0513 o tshwanetse ho ela hloko
101_0516 ka modulasetulo wa sehlopha sa
101_0518 liberal arts college
101_0522 sebediswang wa ho phethola mobu
101_0525 phahameng ya poone le mmaraka
101_0526 ho beha leihlo tshebediso ya
101_0527 ikopanye le ofisi ya lefapha
101_0528 ho ngodisa jwalo ka setsebi
101_0533 ya grain sa ya tlhahiso
101_0536 nebula award winning
101_0538 ena ke e nngwe ya
101_0539 national baseball hall
102_0002 south asian association
102_0003 mang ya ikemiseditseng ho nehelana
102_0004 harry
102_0005 kontane kapa ka tjheke e
102_0006 saint john river
102_0007 akhaonteng e latelang ya banka
102_0008 convention
102_0009 tsa larvae hammoho le mahe
102_0011 ba lakatsang ho sebetsa jwalo
102_0012 o okina ahu
102_0013 ha eba poone e sa
102_0014 best foreign language
102_0017 september
102_0019 lefapheng la kgwebo le indasteri
102_0020 human development index
102_0021 army air corps
102_0022 tswela pele ka mokgwa wa
102_0028 american psychiatric association
102_0029 following world war
102_0030 bona ba na le tokelo
102_0031 tjhelete ya hae e kenang
102_0032 ka mokgwa o nepahetseng nakong
102_0034 le dipehelo tse ding tse
102_0035 screen actors guild
102_0036 efe kapa efe e boletsweng
102_0037 foreign direct investment
102_0038 randburg
102_0039 butlebutle ka mokgwa o ke
102_0040 e tswang ho registrar of
102_0041 kapa hofe ho ka bang
102_0042 ha puo e lahlehelwa ke
102_0043 kopo ya setefikeiti sa ho
102_0046 ha eba kere e potolohisang
102_0048 di na le nako e
102_0049 protea
102_0050 dikarolo dife kapa dife tse
102_0052 great lakes region
102_0053 san francisco giants
102_0054 hore ho na le tshebetso
102_0055 e ntshitsweng ke bolaodi bo
102_0056 american film producers
102_0057 hore ditokomane tsa mmuso ha
102_0060 ha ho kgethwa dipuo tseo
102_0061 ha re sebetsa mmoho re
102_0062 mme re tshepa hore moya
102_0063 lokelang ho fetolelwa bafetoleding ba
102_0064 north germanic languages
102_0065 boleng ba bophelo ba batho
102_0067 l cuin abbr
102_0068 naha ya afrika borwa kapa
102_0069 dutch east india
102_0070 motho ka mong o tlamehile
102_0073 dipeo le dipeo tse hlahang
102_0074 tsa tokisetso tsa lekgetho di
102_0076 united states geological
102_0077 new york yankees
102_0078 e tla fapana ka ho
102_0079 american jewish people
102_0080 bay
102_0081 bridgeport
102_0082 ba ngodise ho south african
102_0084 best supporting actor
102_0085 red blood cells
102_0086 ofisi ya lefapha le haufi
102_0087 nako e telele ho tiisitse
102_0088 hoer leano le phethahale bophelong
102_0090 buddhism
102_0091 le ho romela ditokomane ho
102_0092 recreation
102_0093 be bonolo ho palama baesekele
102_0094 ya tshwereng thaetlele kapa monga
102_0095 leqephe la pele la foromo
102_0096 madison square garden
102_0097 diprojeke tsa bohlokwa tsa lenaneo
102_0099 la afrika borwa la basebetsi
102_0100 valhalla
102_0102 tshebedisano e kwetsweng e lefa
102_0103 ha e kenyeletse hlapi ya
102_0104 strategic air command
102_0105 science fiction novel
102_0106 feta pele hore ho na
102_0107 moscow state university
102_0109 motho ofe kapa ofe a
102_0110 maseru
102_0112 united states census
102_0113 naha ya afrika borwa ba
102_0114 gibbon
102_0116 mang ya ka etsang kopo
102_0117 president george
102_0118 hore ba kgone ho ba
102_0119 o neng o rena ditherisanong
102_0120 holy hand grenade
102_0121 banna le basadi ba na
102_0124 e ya ho lefapha la
102_0126 tlhahiso ya poone le soneblomo
102_0127 sam
102_0128 centrally planned economy
102_0129 rona bo tataiswe haholo ke
102_0130 ka bonyane dipuo tse tsheletseng
102_0131 disebediswa tse seng di ile
102_0132 north west company
102_0133 ka hara naha le tla
102_0134 fuwa ditokelo tsa bona tsa
102_0135 la boemo bo hodimo la
102_0136 nuclear test ban
102_0137 tse phahameng tsa taolo ka
102_0138 nakong eo masimo a tlohetsweng
102_0139 indastering e batsi ya temo
102_0140 sa sepolesa sa afrika borwa
102_0141 le kgonahalo ya hore batho
102_0142 provenseng kang ho tla ba
102_0144 mabapi le ho sebedisa poone
102_0145 se fetileng sa hlabula e
102_0146 setefikeiti sa boingodiso ba koloi
102_0148 award winning authors
102_0149 ho tloha sebopehong sa kgale
102_0150 ya ngaka ya diphoofolo ya
102_0152 lekgotleng la dinyewe ho tla
102_0153 ding le tse ding tse
102_0154 la dibokonyana tsena tse salang
102_0155 tailor
102_0156 roman catholic priests
102_0157 chancellorsville
102_0160 new york jets
102_0161 ho sireletsa le ho matlafatsa
102_0162 grammatical
102_0163 madison square garden
102_0164 baheno
102_0167 tswela pele ho sebetsa le
102_0171 electron transport chain
102_0172 united states army
102_0174 national hockey league
102_0176 kgatello ya tshebediso ya mefuta
102_0182 ha eba o hloleha ho
102_0183 ile ba hapa moputso wa
102_0184 ka ho lekola tswelopele ya
102_0185 aterese ya moo o dulang
102_0186 articles including recorded
102_0188 nakwana ke ho thusa balefi
102_0190 moo ho ipehilweng ka tsela
102_0193 ya ho ba teng ha
102_0195 international atomic energy
102_0197 e leng se etsang hore
102_0198 e sebetswa letsatsing leo e
102_0199 southwestern united states
102_0200 senqu
102_0202 numeric character references
102_0203 nako e hlokolosi e ka
102_0204 feteng dikgwedi tse tharo kapa
102_0205 seng le lefilwe bakeng sa
102_0206 united states president
102_0207 ho se ho kenwe ho
102_0208 common law jurisdictions
102_0209 e nang le share capital
102_0211 ya phemiti ya bodulo ba
102_0213 original game boy
102_0216 mahareng a phato ho fihlela
102_0218 average family size
102_0220 leng se bolelang hore ho
102_0221 phemiti ya ho rafa kapa
102_0222 ho ntse ho na le
102_0223 empire
102_0224 ntate wa ngwana ya tswetsweng
102_0225 le hore se sebetsa jwang
102_0226 tsa taolo ka dikhemikhale le
102_0230 kgopolo ya hore dihlahiswa tse
102_0232 lenane la batho ba e
102_0236 tlhahiso ya poone le mmaraka
102_0237 kgone ho tswela pele ka
102_0239 metsimaholo
102_0240 e nngwe ya tsona e
102_0241 hore menyenyetsi e mabapi le
102_0242 afrika borwa ba leng mose
102_0243 ka nepo le ho boloka
102_0244 tshebeletso ya poso e sa
102_0245 le eneji le la dikgwebo
102_0246 e tlang tse mabapi le
102_0247 supreme allied commander
102_0250 bad
102_0252 nelson mandela le thabo mbeki
102_0253 durban
102_0258 junior high school
102_0259 ka mokgwa o sa tlwaelehang
102_0260 ile wa rekisetswa lefapha la
102_0261 le reng limited le tla
102_0262 org wiki wikipedia
102_0263 tikoloho
102_0264 bragg
102_0265 mabapi le sehla se tlang
102_0266 royal albert hall
102_0268 ka ba ka mokgwa wa
102_0269 fact date march
102_0270 o lokela ho ba motho
102_0271 congressional gold medal
102_0273 ke ema ka pela lona
102_0276 bakeng sa nako ya boholo
102_0277 kgothalletsa ka matla tshebediso ya
102_0280 lokile pele o etsa kopo
102_0281 seo o hopotseng ho se
102_0285 ya hae ntle ho lebaka
102_0286 tsebisa ka ho o ngolla
102_0287 blood
102_0288 man
102_0289 federal trade commission
102_0292 e fumaneha ka potlako weposaeteng
102_0293 sa witblits se neng se
102_0294 ya ho tswela pele ha
102_0295 history
102_0296 tshebetso ya botsebi ba saense
102_0297 ya rona ya puo le
102_0298 ntshetsopele ya dipeo tsa oli
102_0300 tlhokeho ya mosebetsi wa ho
102_0301 e le hore ba tle
102_0302 ya mobu bakeng sa ntshetsopele
102_0303 kopo ya phemiti ya bodulo
102_0304 ya saense ya lekgotleng la
102_0306 baahi ba afrika borwa kapa
102_0307 hall
102_0308 tlhahiso e tswetseng pele ya
102_0309 fiction television series
102_0310 borwa e se nang morabe
102_0311 kopi e tiiseditsweng ya bukana
102_0312 wa afrika borwa a ka
102_0313 se kgethollwe ho ya ka
102_0314 ho se na motho ya
102_0315 bafta winners people
102_0317 mmalwa le traste ditho tsohle
102_0318 mme hona ho tla ya
102_0319 strong nuclear force
102_0320 khampani ya ba mmalwa e
102_0321 ya kopo ofising e haufi
102_0322 mabapi le mefuta e metle
102_0323 red blood cells
102_0324 seahelo sa ho lokisa tlhapi
102_0325 ka tsela e ke keng
102_0326 ho tshwarella nako e telele
102_0327 modern orthodox judaism
102_0328 randfontein
102_0329 e mabapi le maemo a
102_0331 october
102_0334 le ho tempuwa ke mosebeletsi
102_0335 power parity comparisons
102_0336 african
102_0337 leng le le leng kapa
102_0338 etsa kopo ya ho ngodisa
102_0340 re tsebang ho sebetsa re
102_0341 moo motho a fumanang kuno
102_0342 primitive recursive functions
102_0343 boqwabi
102_0345 sehlopheng sa rona sa tshebetso
102_0348 di be tharo mme o
102_0349 armoured fighting vehicles
102_0350 re kopa hore o ele
102_0351 tswa ho monga setsha seo
102_0354 proffesor
102_0355 dingane
102_0356 phepelo ya dijo tsa polasing
102_0357 ozone layer protection
102_0358 moaho wa lekgotla la naha
102_0359 united states senate
102_0360 states environmental protection
102_0363 american male singers
102_0364 bophelong
102_0365 moahi wa naha ya afrika
102_0367 ho tholwa ha ngwana ka
102_0368 ya thuso bakeng sa ho
102_0369 ho hlokeha lengolo la tumello
102_0370 jwalo ka ha ho hlokeha
102_0371 television shows set
102_0372 court ha e le traste
102_0373 bakeng sa nako e kgutshwane
102_0374 ke ke wa kgona ho
102_0375 diminerale kapa mahakwe a bohlokwa
102_0376 batlang ho etsa kopo ya
102_0377 le hore re tle re
102_0378 ntswaki
102_0379 sireletsa le ho matlafatsa botsebi
102_0380 moralo wa leano la puo
102_0382 sebedisa tlhahisoleseding e kentsweng ke
102_0385 midrand
102_0387 tlasa bolaodi ba mmuso wa
102_0388 miller's
102_0390 formal diplomatic relations
102_0394 ka mokgwa o hlakileng ho
102_0396 tsitsitseng mmusong maemong le ha
102_0397 setifikeiti sa tswalo sa afrika
102_0398 european economic area
102_0399 baka mathata temong ya dijothollo
102_0401 mahola e tshwanetse ho etswa
102_0402 hore mobu o na le
102_0403 ho kenngwa tshebetsong ha melao
102_0404 ka ntle ya batlang ho
102_0405 high seas fleet
102_0406 rala mme o romele ditokomene
102_0407 law enforcement agencies
102_0408 hartbeespoort
102_0409 ho behela taelo ka thoko
102_0411 di tswela pele ho sa
102_0412 internet protocol suite
102_0413 national football team
102_0414 moahong wa lekgotla la naha
102_0415 tla kenyeletsa bonyane thuto e
102_0417 ho lefa molato wa hao
102_0418 ditaba tse amanang le molao
102_0419 kofi
102_0420 early church fathers
102_0421 taolo ka dikhemikhale le mefuta
102_0422 league baseball team
102_0423 complaints
102_0424 tsela e tla ba le
102_0425 ha fela ho sa ntse
102_0426 french west africa
102_0427 hangata a na le metso
102_0428 ba teng ha lenaneo la
102_0429 supreme court ruled
102_0430 good
102_0431 church turing thesis
102_0432 potter's
102_0433 a ka nna a baka
102_0435 john
102_0437 hospital
102_0442 ho etsa kopo ya taelo
102_0443 golden globe film
102_0444 kenngwa ha jine ya bt
102_0445 lekgotla la ho ntshuwa ha
102_0446 setsi se haufi sa mesebetsi
102_0447 ka baka hore a lefiswe
102_0448 tsosoloso ya boemo ba theshiari
102_0449 bilateral immunity agreement
102_0450 pakeng tsa dikarolwana tsa mobu
102_0452 ho na le mefuta e
102_0453 kgahlanong le dikgoka ho basadi
102_0454 batsi mabapi le sekgahla sa
102_0456 magnetic resonance imaging
102_0457 ba ka hodimo ho dilemo
102_0458 van der waals
102_0460 citation needed april
102_0464 golden globe winners
102_0465 palestine liberation organization
102_0468 free methodist church
102_0469 ba bangata ba ile ba
102_0470 sebediswa ho laola lebelo la
102_0473 motor vehicle manufacturers
102_0474 nfc championship game
102_0475 environmental protection agency
102_0478 tumello e ngotsweng fatshe e
102_0479 big bang model
102_0481 afrika borwa ha kopo e
102_0484 a lehodimo nakong ya tshebediso
102_0486 ho ntsha raporoto ya radiology
102_0490 fifa world cup
102_0491 senyesemane
102_0492 la provinse kapa la naha
102_0494 russian civil war
102_0495 fact date august
102_0496 bill
102_0497 o na le diterekere le
102_0498 monroe
102_0499 poids et mesures
102_0501 ho ngodisa jwalo ka setsebi
102_0502 ntlafatsa polokeho le tshireletso ya
102_0503 tsa theko ya sehlahiswa le
102_0504 ho beha leihlo tshebediso ya
102_0505 hubble space telescope
102_0506 sexually transmitted diseases
102_0507 dikgopo tsa mahlaku hloohong ya
102_0508 united nations high
102_0510 kapa ho hloka bokgoni ba
102_0512 theko ya sehlahiswa le bongata
102_0513 mahola ke sera sa pele
102_0514 positive real numbers
102_0515 pimville
102_0519 open source initiative
102_0521 o tshwanetse ho tseba hore
102_0522 sekgahla sa ho mela ha
102_0523 merafong le temong bakeng sa
102_0524 kapa tokomane efe kapa efe
102_0525 rephaboliki
102_0526 south sandwich islands
102_0527 valence bond theory
102_0528 islamic conference oic
102_0529 kenya tshebetsong mokgwa wa ho
102_0530 united states district
102_0531 national baseball hall
102_0532 roman catholic archbishops
102_0533 ditletlebo
102_0534 lefuweng bakeng sa tokelo ya
102_0535 tshwanela ho etsa kopo ya
102_0537 ho thehwa ha diyuniti tsa
102_0538 billy
102_0540 clarify date february
103_0001 constitution of the republic of
103_0003 le ho netefatsa mmuso wa
103_0005 le tlhokeho e potlakileng ya
103_0006 sa ho di tshireletsa ha
103_0009 graphical user interface
103_0011 ho tjheswa le ho kgutliswa
103_0013 fana ka tsebo le bokgoni
103_0014 napier ke furu e ntle
103_0020 phahameng la molao le phatlaladitse
103_0022 ditlhapiso bakeng sa dikotsi le
103_0028 e arabelang ditlhoko tsa bona
103_0031 karabo eo o e fumanang
103_0033 abdur rahman khan
103_0034 failed verification date
103_0037 botlalo di tla kgutlisetswa ho
103_0038 blacksash
103_0042 tlhokeho ya taolo ya dikokwanyana
103_0044 etsa hore o kgone ho
103_0045 british television series
103_0049 richmond
103_0052 cell lung carcinoma
103_0053 gross domestic product
103_0054 ntshetsopele ya molemi wa grain
103_0055 containing video clips
103_0056 di ka phethahatswa le ha
103_0060 ho teng dintlha tse mmalwa
103_0062 eyes wide shut
103_0063 ho ba molemi wa mohwebi
103_0064 american foreign policy
103_0065 ha monga thepa a rata
103_0068 frankfort
103_0069 american film directors
103_0071 chinese civil war
103_0072 getro
103_0073 a etsa qeto ya ho
103_0080 united states navy
103_0081 tefello ya kopo e hlokehang
103_0085 rock music groups
103_0086 devan gar
103_0088 national park service
103_0090 foromong ya kopo hore na
103_0091 moporesidente
103_0092 kgetho ya bamamedi bao ho
103_0094 human rights watch
103_0095 democratic
103_0096 foreign direct investment
103_0099 alexandra
103_0102 puo tsa nguni le sesotho
103_0103 san diego padres
103_0104 ridgeway
103_0105 zimbabwe
103_0106 puo ka ho hlahisa dipheo
103_0110 major political parties
103_0112 sebedisa disebediswa tse fapaneng tsa
103_0122 kgwebo
103_0124 sa ho epolla le ho
103_0126 reactive oxygen species
103_0128 ke hore ha eba o
103_0129 ho phethisa kahlolo kapa taelo
103_0134 tsa ho iteanya le motho
103_0137 moputso wa ho qetela o
103_0141 batho ba bang ke ba
103_0142 provincial
103_0143 hopola hore re kgona ho
103_0144 los angeles county
103_0145 nations general assembly
103_0147 kapa ho toloka moo ho
103_0148 partially ordered set
103_0149 sir francis drake
103_0150 jwang ho matlafatsa kapa hona
103_0151 dikopo di ka etswa ofising
103_0152 mokopi o na le ditjhelete
103_0153 tse mpe le tse nyonyehang
103_0155 camp david accords
103_0160 a puo ka ho hlahisa
103_0161 cape breton island
103_0164 controlled substances acte
103_0166 le hlalosang hore ke ka
103_0168 ka moo ho kgonahalang ka
103_0169 ba le tokelo ya boqapi
103_0173 bonnete hore molemi ke karolo
103_0175 saint lawrence river
103_0182 new zealand english
103_0184 president
103_0188 ho hlwaya tefo ya hao
103_0189 lebanese armed forces
103_0190 e fapaneng ya ho phethola
103_0191 nehela lefapha kopi e tiiseditsweng
103_0192 verify credibility dater
103_0193 nebula award winning
103_0195 qhalanya tjhefo ena diforong tsa
103_0196 sepolesa sa afrika borwa kapa
103_0198 langton
103_0200 petrus
103_0202 cosmic microwave background
103_0203 bohahlaudi kapa bolaodi bo beilweng
103_0206 camp david accords
103_0207 hamburg
103_0208 computational complexity theory
103_0209 mayflower
103_0210 ho bile le tshehetso e
103_0211 province
103_0212 selborne
103_0213 ya heno e haufinyana ya
103_0214 declared martial law
103_0216 ba saruri ba afrika borwa
103_0218 national park service
103_0219 european central bank
103_0220 french west africa
103_0221 cite journal author
103_0226 e tshwanetse ho etswa ho
103_0229 se hlahlamang sa ho jala
103_0231 association football clubs
103_0232 clarence's
103_0234 digital signal processing
103_0236 sherman's
103_0240 matsatsi a mahlano ho ngodisa
103_0241 north germanic languages
103_0242 pope julius
103_0243 spruit
103_0244 riverside
103_0245 ho kenweng ho ona ka
103_0246 federal communications commission
103_0248 afrika borwa ya nang le
103_0253 dennilton
103_0257 mong le e mong ya
103_0258 garrick
103_0273 bonaparte
103_0279 monyakeng
103_0282 lejwe
103_0283 box office success
103_0285 hong kong island
103_0289 mane ho isa ho a
103_0299 mohahamoriti
103_0300 comic book series
103_0307 german air force
103_0310 ikemetseng
103_0317 george
103_0330 pope urban
103_0336 a sa siya wili e
103_0349 ba puo e tla hloka
103_0355 extension
103_0360 atlantic
103_0366 roodepoort
103_0373 new york jets
103_0375 real gdp growth
103_0382 hauhelele
103_0385 david
103_0387 ya b di be tharo
103_0390 mtv video music
103_0391 ka nna a ba le
103_0392 mme ho tla ya ka
103_0403 institjhute
103_0408 dipalopalo
103_0410 kiana
103_0422 park
103_0424 royal dutch shell
103_0425 sound
103_0436 ludwig von mises
103_0438 san pedro sula
103_0439 religious
103_0446 tse seng di ile tsa
103_0449 motherwell
103_0450 old garden roses
103_0452 ka ho etsa kopo ya
103_0463 pope benedict
103_0470 qhamakwane
103_0477 e nngwe ho ya ho
103_0483 civil class
103_0485 o be o na le
103_0489 eldorado
103_0498 education
103_0508 ice hockey team
103_0513 ramolodi
103_0514 ka puo ya kgetho ya
103_0519 batshwaruwa
103_0524 northern
103_0527 south
103_0529 marcel
103_0531 ferry
103_0533 north west company
103_0536 bethal
103_0538 e batlang e le ntle
103_0542 grand
103_0546 gcis e ka fana ka
103_0550 war political
103_0556 ha ba hloke ho ntsha
103_0561 e ne e le sebaka
103_0565 guru granth sahib
103_0569 memphis
103_0578 edwin
103_0580 game boy advance
103_0585 europe music
103_0598 ka hlaloswa ka mokgwa o
103_0610 grisly
103_0611 ya tlhaselo e eso fihle
103_0612 states district court
103_0613 dutton
103_0614 native american tribes
103_0616 early morning hours
103_0619 ke notary public kapa mokhomishenara
103_0624 ha eba o na le
103_0626 los angeles county
103_0627 nna tsa ama malwetse a
103_0630 catherine
103_0631 sa ho ba le seabo
103_0636 transvala
103_0637 ba hore o na le
103_0639 dikgatiso tsa menwana ya mokopi
103_0640 billion years ago
103_0641 missing living people
103_0643 united states declaration
103_0644 eo ho dumellanweng ka yona
103_0645 wa ho qala wa leloko
103_0648 romela ka mora nako ditlaleho
103_0649 kansas city royals
103_0654 n g rjuna
103_0655 le ho haha setjhaba sa
103_0656 ho ba le seabo lenaneong
103_0658 rapid economic growth
103_0659 human rights record
103_0660 union member states
103_0661 close air support
103_0663 cognitive behavioral therapy
103_0666 united arab emirates
103_0667 quantum field theory
103_0668 fact date july
103_0670 puo ya bajete le setatemente
103_0671 black sea coast
103_0672 persian gulf states
103_0673 toka
103_0675 american musical theatre
103_0676 o nka kilograma e le
103_0677 internal combustion engine
103_0678 grain sa ya tlhahiso ya
103_0679 mokgwa o sa tlwaelehang re
103_0684 moo e leng hore ho
103_0686 kopo ya bodulo ba saruri
103_0687 american nobel laureates
103_0691 random access memory
103_0692 phemiti ya ditswantle ya bongaka
103_0693 ka hara naha ya afrika
103_0695 day saint movement
103_0698 knights grand cross
103_0702 ya south african revenue service
103_0704 halleck
103_0705 ha ho ne ho ena
103_0707 ka mokgwa o hlwahlwa ho
103_0708 a se ke a kena
103_0710 etsa hore a kgone ho
103_0714 monetary fund imf
103_0715 united states air
103_0716 melbourne football club
103_0717 hard disk drive
103_0718 tswang dipuong tsa sehlopha sa
103_0723 naha ya habo rona e
103_0724 power parity comparisons
103_0725 united states dollar
103_0726 late twentieth centuryodowska curie
103_0728 republican party united
103_0729 average life expectancy
103_0730 tse tshwanetseng ho elwa hloko
103_0734 ditlhaloso tsa lengolo la truste
103_0736 meade
103_0737 etsa diketso tse hlabisang dihlong
103_0738 of access to information act
103_0740 leondale
103_0741 boyce
103_0743 reef
103_0745 aung san suu
103_0747 ho hlwaya tefo ya hao
103_0753 tumello ho tswa ho monga
103_0754 ho ya ho tse robedi
103_0755 diphaphosing tsa borutelo ka nako
103_0756 provincial
103_0757 a re nke hore bolelele
103_0758 frankfort
103_0759 declared martial law
103_0760 blacksash
103_0765 ho tjheswa le ho kgutliswa
103_0771 iss ya afrika borwa e
103_0774 disebediswa tse fapaneng tsa ho
103_0775 tshilafatso kapa tshenyo e sa
103_0781 abednego
103_0783 lefu kapa kotsi e bakilweng
103_0787 major political parties
103_0788 reactive oxygen species
103_0796 north atlantic treaty
103_0797 north germanic languages
103_0800 getro
103_0802 eyes wide shut
103_0803 trade
103_0804 le balemi ba ntseng ba
103_0808 pherekgong
103_0811 national park service
103_0812 nebula award winning
103_0813 etsa hore o kgone ho
103_0815 phihlelo ya dithuso tsa sapoto
103_0816 o romele bopaki ba tefo
103_0817 world trade center
103_0822 higher education institutions
103_0828 sepolesa sa afrika borwa kapa
103_0829 ba eba siyo lebatoweng leo
103_0831 graphical user interface
103_0833 american film institute
103_0835 ho fetola lefapha la ditaba
103_0837 verify credibility dater
103_0839 la ho qetela la ho
103_0840 belfast
103_0841 leanong la naha la puo
103_0849 e tshwanetse ho etswa ho
103_0851 kgwebo
103_0852 wa bolo ya maoto wa
103_0860 botlalo di tla kgutlisetswa ho
103_0862 melongwana e seng e kgathetse
103_0864 le thibelo ya kgethollo e
103_0865 e ke ke ya feta
103_0866 hopola hore re kgona ho
103_0874 american football conference
103_0875 italian roman catholics
103_0876 boemong ba naha ba mmuso
103_0878 elections took place
103_0880 fana ka tsebo le bokgoni
103_0887 cosmic microwave background
103_0888 dikopo di ka etswa ofising
104_0001 baheno
104_0003 united states senate
104_0004 ya pele e neng e
104_0005 moscow state university
104_0007 bafta winners people
104_0008 big bang model
104_0009 tshebetso e etsang hore ho
104_0010 di be tharo mme o
104_0011 ha eba kere e potolohisang
104_0013 la boemo bo hodimo la
104_0016 october
104_0017 feteng dikgwedi tse tharo kapa
104_0018 kopi e tiiseditsweng ya bukana
104_0025 ntshetsopele ya dipeo tsa oli
104_0026 bilateral immunity agreement
104_0029 tsa tokisetso tsa lekgetho di
104_0031 good
104_0032 buddhism
104_0033 league baseball team
104_0035 john
104_0037 kgahlanong le dikgoka ho basadi
104_0038 holy hand grenade
104_0039 e nang le share capital
104_0041 original game boy
104_0048 batlang ho etsa kopo ya
104_0051 law enforcement agencies
104_0054 mesebetsi efe ya ho mmaraka
104_0056 kapa dife tse amanang le
104_0058 nelson mandela le thabo mbeki
104_0062 supreme allied commander
104_0066 internet protocol suite
104_0067 following world war
104_0068 sapoto jwalo ka ha e
104_0069 united states census
104_0070 nako e telele ho tiisitse
104_0072 le hore re tle re
104_0074 ho kenngwa tshebetsong ha melao
104_0075 e nngwe ya tsona e
104_0076 le ho tloswa ha matlakala
104_0078 roman catholic priests
104_0079 united states army
104_0080 church turing thesis
104_0081 ya tshwereng thaetlele kapa monga
104_0082 keketseho thekong ya matjhaba e
104_0083 bakeng sa nako ya boholo
104_0084 phemiti ya ho rafa kapa
104_0085 strong nuclear force
104_0087 tsa larvae hammoho le mahe
104_0088 dutch east india
104_0089 bragg
104_0090 golden globe winners
104_0091 ya taelo ya tshireletso ya
104_0094 primitive recursive functions
104_0097 south asian association
104_0099 human development index
104_0102 lefapheng la kgwebo le indasteri
104_0104 dingane
104_0105 e leng se etsang hore
104_0109 sa sepolesa sa afrika borwa
104_0110 american male singers
104_0111 screen actors guild
104_0112 argentina ho ya afrika borwa
104_0114 history
104_0115 chancellorsville
104_0116 org wiki wikipedia
104_0118 ho ntse ho na le
104_0120 di ka etswa hape le
104_0123 states environmental protection
104_0126 royal albert hall
104_0128 taolo ka dikhemikhale le mefuta
104_0133 empire
104_0134 re tsebang ho sebetsa re
104_0135 e ntshitsweng ke bolaodi bo
104_0136 kofi
104_0138 le ho tempuwa ke mosebeletsi
104_0139 ha metsi pakeng tsa dikarolwana
104_0140 tse ka hodimo tsa mobu
104_0141 mabapi le sehla se tlang
104_0142 power parity comparisons
104_0143 saense ya tlhaho dikri diploma
104_0147 protea
104_0148 ka bonyane dipuo tse tsheletseng
104_0150 ho tshwarella nako e telele
104_0153 seahelo sa ho lokisa tlhapi
104_0154 free methodist church
104_0157 rona bo tataiswe haholo ke
104_0158 a lehodimo nakong ya tshebediso
104_0159 tshebetso ya botsebi ba saense
104_0160 great lakes region
104_0161 ka mokgwa o hlakileng ho
104_0162 tlamehile maoto le matsoho ho
104_0163 metsimaholo
104_0164 madison square garden
104_0165 miller's
104_0166 lokile pele o etsa kopo
104_0169 etsa boipiletso ho letona la
104_0170 ho tloha sebopehong sa kgale
104_0173 mabitso a bonkgetheng bakeng sa
104_0174 e tla fapana ka ho
104_0175 early church fathers
104_0179 motor vehicle manufacturers
104_0180 rala mme o romele ditokomene
104_0182 federal trade commission
104_0184 ho suthisa ka ho ya
104_0187 setsi se haufi sa mesebetsi
104_0188 bakeng sa nako e kgutshwane
104_0189 boqwabi
104_0190 a diphoofolo tsa afrika borwa
104_0192 mang ya ka etsang kopo
104_0193 president george
104_0194 hoer leano le phethahale bophelong
104_0195 ya mobu bakeng sa ntshetsopele
104_0197 maseru
104_0198 ho tla etswa ho latela
104_0200 sam
104_0201 l cuin abbr
104_0202 baahi ba afrika borwa kapa
104_0203 tse felletseng tsa moo ho
104_0205 ka mokgwa o nepahetseng nakong
104_0206 moaho wa lekgotla la naha
104_0207 bill
104_0208 khampani ya ba mmalwa e
104_0209 supreme court ruled
104_0212 tlhokeho ya mosebetsi wa ho
104_0213 e sebetswa letsatsing leo e
104_0214 tailor
104_0215 tswela pele ho sebetsa le
104_0217 feta pele hore ho na
104_0218 motho ya tshwereng thaetlele kapa
104_0221 ho ba teng ha lenaneo
104_0223 san francisco giants
104_0224 tswa ho monga setsha seo
104_0225 hangata a na le metso
104_0226 ya ho tswela pele ha
104_0228 united states geological
104_0229 lokelang ho fetolelwa bafetoleding ba
104_0230 ozone layer protection
104_0231 leng le le leng kapa
104_0232 national football team
104_0233 mabapi le tlhahiso ya koro
104_0234 senyesemane
104_0235 recreation
104_0236 mokgatlo o emetseng basebeletsi tumellanong
104_0237 tokomane eo o batlang ho
104_0239 lekgotla la ho ntshuwa ha
104_0240 le ho romela ditokomane ho
104_0243 hlahisa dijothollo di phahame haholo
104_0244 di na le nako e
104_0245 golden globe film
104_0247 american film producers
104_0248 ba bangata ba nang le
104_0249 ditho tsa palamente ha di
104_0250 tjhelete ya hae e kenang
104_0251 terekere le disebediswa tsa polasing
104_0254 leqephe la pele la foromo
104_0255 united states president
104_0256 average family size
104_0257 butlebutle ka mokgwa o ke
104_0258 kenngwa ha jine ya bt
104_0259 ditaba tsena di nkilwe thutong
104_0262 aterese ya moo o dulang
104_0263 cathode ray tube
104_0266 sebetsa jwalo ka borasaense ba
104_0267 mahola e tshwanetse ho etswa
104_0268 mang ya ikemiseditseng ho nehelana
104_0269 ya thuso bakeng sa ho
104_0270 convention
104_0271 batho
104_0272 ofisi ya lefapha le haufi
104_0273 maano a tsona ho latela
104_0275 boholo ba masimo a hao
104_0277 ha eba poone e sa
104_0278 etsa kopo ya ho ngodisa
104_0279 tla romelwa seteisheneng sa mapolesa
104_0280 bay
104_0281 la provinse kapa la naha
104_0283 durban
104_0284 hore mobu o na le
104_0285 harry
104_0286 ha eba o hloleha ho
104_0289 di tswela pele ho sa
104_0291 moo motho a fumanang kuno
104_0293 re kopa hore o ele
104_0294 o neng o rena ditherisanong
104_0295 fiction television series
104_0298 o tshwanetse ho ba le
104_0299 dipuo tsa afrika borwa tsa
104_0300 wa afrika borwa ya hlokahetseng
104_0301 dineo
104_0302 tsitsitseng mmusong maemong le ha
104_0304 ya selemo kapa ya sehla
104_0307 jwalo ka ha ho hlokeha
104_0308 e tswang ho registrar of
104_0309 batsi mabapi le sekgahla sa
104_0311 ka nngwe e na le
104_0312 afrika borwa ha kopo e
104_0313 articles including recorded
104_0314 dikarolo dife kapa dife tse
104_0315 tumello e ngotsweng fatshe e
104_0316 african
104_0317 poids et mesures
104_0318 award winning authors
104_0319 lekala
104_0322 tsa taolo ka dikhemikhale le
104_0323 bakileng kgatello ya tshebediso ya
104_0326 setifikeiti sa tswalo sa afrika
104_0328 mamelodi
104_0329 senqu
104_0330 palestine liberation organization
104_0331 high seas fleet
104_0332 valhalla
104_0333 o okina ahu
104_0334 tlhaho temeng ya saense ya
104_0338 midrand
104_0339 modern orthodox judaism
104_0341 neelane ka kopo ya hao
104_0343 ho ntsha raporoto ya radiology
104_0345 gibbon
104_0346 randfontein
104_0347 ba ka hodimo ho dilemo
104_0348 e fumaneha ka potlako weposaeteng
104_0349 common law jurisdictions
104_0350 e le kgolo ho eo
104_0353 strategic air command
104_0354 ho tholwa ha ngwana ka
104_0355 ya tumello ya ho romela
104_0356 seng le lefilwe bakeng sa
104_0357 ya rona ya puo le
104_0358 ile ba hapa moputso wa
104_0360 north west company
104_0361 new york jets
104_0364 ditaba tse amanang le molao
104_0365 la ditaba tsa lehae hore
104_0366 randburg
104_0367 ka baka hore a lefiswe
104_0368 ho hlokeha lengolo la tumello
104_0369 mabapi le mefuta e metle
104_0370 ka mokgwa o sa tlwaelehang
104_0371 ba lakatsang ho sebetsa jwalo
104_0372 foreign direct investment
104_0373 best foreign language
104_0374 sa leano la ditekanyetso tsa
104_0376 blood
104_0377 french west africa
104_0378 sepolesa sa aforikaborwa e lefe
104_0379 tshebedisano e kwetsweng e lefa
104_0380 ya ngaka ya diphoofolo ya
104_0381 ile wa rekisetswa lefapha la
104_0382 tsela e tla ba le
104_0383 la dibokonyana tsena tse salang
104_0385 recent common ancestor
104_0386 tikoloho
104_0387 ya sefafatsi se fatshe sa
104_0388 se fetileng sa hlabula e
104_0389 ya mahola le dikokwanyana ka
104_0391 southwestern united states
104_0393 bao e leng ditho tsa
104_0394 bakeng sa morwalo o mong
104_0395 seo a lokelang ho se
104_0396 pakeng tsa dikarolwana tsa mobu
104_0397 basebeletsi ba hao le dijothollo
104_0398 setefikeiti sa boingodiso ba koloi
104_0400 tse ding le tse ding
104_0401 bad
104_0402 tlhahiso ya poone le soneblomo
104_0404 hore ho na le tshebetso
104_0405 fifa world cup
104_0406 tse phahameng tsa taolo ka
104_0407 disebediswa tse seng di ile
104_0408 ding le tse ding tse
104_0409 september
104_0410 fact date march
104_0411 monroe
104_0412 russian civil war
104_0413 ka mora kotulo ya koro
104_0414 national hockey league
104_0415 best supporting actor
104_0416 science fiction novel
104_0417 new york yankees
104_0418 indastering e batsi ya temo
104_0420 ba bangata ba ile ba
104_0421 le eneji le la dikgwebo
104_0422 lebelo la ho potoloha ha
104_0424 ya etsang kopo ya tokomane
104_0425 nakong eo masimo a tlohetsweng
104_0426 a na le dijo tse
104_0428 north germanic languages
104_0429 ha re sebetsa mmoho re
104_0430 laesense ya boditjhaba ya ho
104_0431 le ka moo o ka
104_0432 sehlopheng sa rona sa tshebetso
104_0433 mokgwa wa elektroniki kapa khaontareng
104_0434 red blood cells
104_0435 moahi wa naha ya afrika
104_0436 efe kapa efe eo ho
104_0437 le dipehelo tse ding tse
104_0438 naha ya afrika borwa ba
104_0439 ho behela taelo ka thoko
104_0440 ya ho lebela ya bopolesa
104_0441 international atomic energy
104_0442 fact date august
104_0443 congressional gold medal
104_0444 complaints
104_0445 centrally planned economy
104_0446 kamohelo ya ho sebetsa jwalo
104_0447 sa witblits se neng se
104_0448 mabapi le ho sebedisa poone
104_0449 ka ho lekola tswelopele ya
104_0450 kgopolo ya hore dihlahiswa tse
104_0454 military coup
104_0455 ntswaki
104_0456 makgoweng
104_0457 madison square garden
104_0458 tswela pele ka mokgwa wa
104_0460 ya kopo ofising e haufi
104_0461 o lokela ho ba motho
104_0462 e kenella tlase mobung le
104_0463 electron transport chain
104_0464 la ditaba tsa tikoloho le
104_0465 proffesor
104_0466 tlhahiso ya poone le mmaraka
104_0467 seo o hopotseng ho se
104_0468 seng feela ke ba buang
104_0470 grammatical
104_0471 citation needed april
104_0473 magnetic resonance imaging
104_0474 sireletsa le ho matlafatsa botsebi
104_0475 ba ngodise ho south african
104_0476 hartbeespoort
104_0477 american psychiatric association
104_0478 bridgeport
104_0479 lekgotleng la dinyewe ho tla
104_0481 junior high school
104_0482 numeric character references
104_0483 ka dikopi tse tiiseleditsweng tsa
104_0484 ha ho kgethwa dipuo tseo
104_0485 nfc championship game
104_0489 european economic area
104_0491 hore ditokomane tsa mmuso ha
104_0494 mesebetsi e itseng ka ho
104_0495 be bonolo ho palama baesekele
104_0496 tsa lekgetho di ka phethahatswa
104_0497 television shows set
104_0498 environmental protection agency
104_0499 van der waals
104_0500 saint john river
104_0501 hloka tumello e ikgethang e
104_0502 le moemedi wa afrika borwa
104_0503 station
104_0504 nebula award winning
104_0505 billy
104_0506 ena ke e nngwe ya
104_0508 a ka nna a fafatswa
104_0509 ho isa ho tse nne
104_0510 thibelang lefu ka mora ketsahalo
104_0511 ya nka bolelele ba dibeke
104_0512 liberal arts college
104_0513 dintlha tsena ka boraro ba
104_0515 ho beha leihlo tshebediso ya
104_0516 ikopanye le ofisi ya lefapha
104_0517 tsa lehae provinseng eo o
104_0518 islamic conference oic
104_0519 a hlahisa dikgwebo tsa tsona
104_0521 ho ngodisa jwalo ka setsebi
104_0522 ho sebedisa lebitso le molaong
104_0523 mahola ke sera sa pele
104_0525 tlhekelo ka letona la bonono
104_0526 re tla sebetsa ka matla
104_0528 united states district
104_0530 e na le dimojule tse
104_0531 ntlafatsa polokeho le tshireletso ya
104_0533 sebediswang wa ho phethola mobu
104_0534 ya tse romellwang ka ntle
104_0536 science fiction hall
104_0537 national baseball hall
104_0538 american political writers
104_0539 ho tswela pele ho ya
104_0540 ho fumana kalafo ya bongaka
104_0541 o tshwanetse ho ela hloko
104_0542 mang le a mang a
104_0543 clarify date february
104_0544 rephaboliki
104_0545 army occupied cypriot
105_0002 european economic area
105_0004 khopi e netefaditsweng ya bukana
105_0007 foreign direct investment
105_0010 strategic air command
105_0011 nako e telele ho tiisitse
105_0014 ho ngodisa jwalo ka setsebi
105_0018 mahola e tshwanetse ho etswa
105_0019 van der waals
105_0020 ha puo e lahlehelwa ke
105_0023 dikgopo tsa mahlaku hloohong ya
105_0024 tsa larvae hammoho le mahe
105_0025 phethahatso ya leano lena e
105_0027 bill
105_0028 ya tumello ya ho romela
105_0029 lenane la batho ba e
105_0031 lekala
105_0034 re tsebang ho sebetsa re
105_0042 tlasa merero e hlwauweng mona
105_0044 le hore re tle re
105_0046 senyesemane
105_0047 kopo e tlameha ho felehetswa
105_0049 fuwa ditokelo tsa bona tsa
105_0050 ho kenngwa tshebetsong ha melao
105_0051 sekgahla sa ho mela ha
105_0052 motor vehicle manufacturers
105_0053 disebediswa tse seng di ile
105_0054 efe kapa efe e boletsweng
105_0055 a na le dijo tse
105_0057 bad
105_0062 centrally planned economy
105_0063 national football team
105_0064 television shows set
105_0066 ya etsang kopo ya tokomane
105_0067 a diphoofolo tsa afrika borwa
105_0071 good
105_0078 pimville
105_0079 united states geological
105_0080 valhalla
105_0082 naha ya afrika borwa kapa
105_0083 federal trade commission
105_0084 ha o a dumellwa ho
105_0087 common law jurisdictions
105_0090 sebetsa jwalo ka borasaense ba
105_0093 fact date august
105_0095 internet protocol suite
105_0096 harry
105_0097 tsa theko ya sehlahiswa le
105_0099 american political writers
105_0101 high seas fleet
105_0106 senqu
105_0109 l cuin abbr
105_0110 maano a tsona ho latela
105_0111 tsa lehae provinseng eo o
105_0116 tla kenyeletsa bonyane thuto e
105_0122 russian civil war
105_0125 eo re neng re e
105_0132 tsa lekgetho di ka phethahatswa
105_0134 ba bangata ba nang le
105_0135 bilateral immunity agreement
105_0136 setsi se haufi sa mesebetsi
105_0137 army occupied cypriot
105_0139 mabapi le ho sebedisa poone
105_0140 la ho qala la nakwana
105_0142 church turing thesis
105_0146 golden globe winners
105_0148 dipuo tsa afrika borwa tsa
105_0150 ho thehwa ha diyuniti tsa
105_0152 miller's
105_0153 efe kapa efe eo ho
105_0155 motho e mong ya nang
105_0156 sa sepolesa sa afrika borwa
105_0158 le moemedi wa afrika borwa
105_0161 junior high school
105_0162 latelang di tla kotjwa bakeng
105_0165 tailor
105_0166 moscow state university
105_0167 mang ya ikemiseditseng ho nehelana
105_0171 saint john river
105_0176 national hockey league
105_0180 test ban treaty
105_0187 ho sireletsa le ho matlafatsa
105_0188 southwestern united states
105_0190 tlamehile maoto le matsoho ho
105_0193 e fuwa baahi ba naha
105_0194 science fiction novel
105_0201 sehlopheng sa rona sa tshebetso
105_0209 mahareng a phato ho fihlela
105_0210 ha metsi pakeng tsa dikarolwana
105_0211 ha e kenyeletse hlapi ya
105_0212 national science foundation
105_0214 armoured fighting vehicles
105_0215 ozone layer protection
105_0220 general public license
105_0221 se fetileng sa hlabula e
105_0222 poids et mesures
105_0223 monroe
105_0224 basebeletsi ba hao le dijothollo
105_0228 military coup
105_0231 ya sefafatsi se fatshe sa
105_0232 moo motho a fumanang kuno
105_0234 diminerale kapa mahakwe a bohlokwa
105_0238 dilemong tse ngata tse fetileng
105_0240 clarify date february
105_0243 american film producers
105_0251 valence bond theory
105_0254 le ho tempuwa ke mosebeletsi
105_0264 baahi ba afrika borwa kapa
105_0267 nebula award winning
105_0271 formal diplomatic relations
105_0275 midrand
105_0278 average family size
105_0279 grammatical
105_0285 le ho romela ditokomane ho
105_0289 american free trade
105_0292 gibbon
105_0301 moahong wa lekgotla la naha
105_0302 ho ntse ho na le
105_0303 supreme allied commander
105_0305 nuclear test ban
105_0306 buddhism
105_0308 nakong ya dikgwedi tsa hlabula
105_0310 hodimo ho moo ba tla
105_0316 fifa world cup
105_0317 argentina ho ya afrika borwa
105_0318 haufi le wena kapa ba
105_0320 ka ntle ya batlang ho
105_0321 french west africa
105_0323 south sandwich islands
105_0325 liberal arts college
105_0327 ka mokgwa o hlakileng ho
105_0330 army air corps
105_0332 american male singers
105_0333 efe kapa efe eo e
105_0335 magnetic resonance imaging
105_0336 nfc championship game
105_0337 eighty years war
105_0338 royal albert hall
105_0339 empire
105_0340 di ka etswa hape le
105_0344 org wiki wikipedia
105_0350 durban
105_0354 bridgeport
105_0355 metsi a ka nnang a
105_0356 e tswang ho registrar of
105_0359 bay
105_0361 united states
105_0362 free methodist church
105_0364 ka bonyane dipuo tse tsheletseng
105_0368 states environmental protection
105_0369 larry
105_0371 re tla dula re ntse
105_0373 moahi wa naha ya afrika
105_0374 african
105_0376 ha re sebetsa mmoho re
105_0379 screen actors guild
105_0381 system
105_0382 provenseng kang ho tla ba
105_0384 ho hlokeha lengolo la tumello
105_0386 september
105_0387 ya ditaba tsa lehae kapa
105_0388 fiction television series
105_0389 ile ba hapa moputso wa
105_0390 chancellorsville
105_0392 batsi mabapi le sekgahla sa
105_0393 science fiction hall
105_0394 tse felletseng tsa moo ho
105_0396 la afrika borwa la basebetsi
105_0398 ho suthisa ka ho ya
105_0400 best foreign language
105_0406 dikarolo dife kapa dife tse
105_0408 north germanic languages
105_0418 bakeng sa nako e kgutshwane
105_0422 lekgotleng la dinyewe ho tla
105_0423 potter's
105_0426 baheno
105_0428 congressional gold medal
105_0438 following world war
105_0439 supreme court ruled
105_0440 sa witblits se neng se
105_0442 mokgwa wa elektroniki kapa khaontareng
105_0446 modern orthodox judaism
105_0452 big bang model
105_0453 leqephe la pele la foromo
105_0454 le hore se sebetsa jwang
105_0459 bragg
105_0460 south asian association
105_0463 animated television series
105_0464 international atomic energy
105_0468 primitive recursive functions
105_0473 setifikeiti sa tswalo sa afrika
105_0476 e nang le share capital
105_0477 bao e leng ditho tsa
105_0482 citation needed april
105_0483 united states president
105_0485 tlhahiso e tswetseng pele ya
105_0487 ya tshwereng thaetlele kapa monga
105_0488 kopo ya setefikeiti sa ho
105_0492 united states senate
105_0493 kgothalletsa ka matla tshebediso ya
105_0494 naha ya afrika borwa ba
105_0498 islamic conference oic
105_0499 open source initiative
105_0500 wa etsa tshebetso tsa kgwebisano
105_0501 sena se ka qetella ka
105_0503 president george
105_0509 ho etsa hore naha ya
105_0510 man
105_0512 rephaboliki
105_0517 dikgatiso tsa tshebediso ya dipuo
105_0519 golden globe film
105_0523 early church fathers
105_0531 new york yankees
105_0533 original game boy
105_0534 tlhekelo ka letona la bonono
105_0538 ya ho tswela pele ha
105_0539 san francisco giants
105_0541 kamohelo ya ho sebetsa jwalo
105_0543 red blood cells
105_0544 madison square garden
105_0545 tsosoloso ya boemo ba theshiari
105_0546 tlwaelo e ke ke ya
105_0548 lekgotla la ho ntshuwa ha
105_0552 environmental protection agency
105_0553 holy hand grenade
105_0554 o neng o rena ditherisanong
105_0555 tlhahiso ya poone le soneblomo
106_0007 ke tshwenyehile o se ke
106_0015 federal reserve banks
106_0023 le hojane ka mathoko ho
106_0025 civil war broke
106_0028 o ne a kwalletswe bosiung
106_0032 ke boelane le aubuti thabang
106_0037 eja masapo a hlooho ke
106_0040 booker t big show cena
106_0043 be ba se ba e
106_0054 ntshwabiseng a arabella ka ho
106_0056 president john
106_0061 ditabatv e nkilenako eo re
106_0065 el nino e e fihlelle
106_0067 ke fetwa ke lift ka
106_0071 blessed virgin mary
106_0072 o ne a sa utlwisise
106_0080 ancient greek philosophers
106_0083 empire state building
106_0092 ho sejura le le se
106_0104 le seburu di qadileng ka
106_0110 lebenkeleng la fenetjhara o teane
106_0123 ke ne ke le sefofu
106_0130 ya profensi ya transvaal e
106_0131 re if diplomacy fails then
106_0136 le fokang le ipopile le
106_0137 ne e ye e re
106_0153 american civil war
106_0155 ha a ke a mo
106_0157 maemong a tlwaelehileng a dipuisano
106_0167 dikhompeuta theepa ya odiyo theepa
106_0168 e ne e le koloi
106_0169 qaqa ha a phehella ho
106_0175 minister tony blair
106_0188 o re ho thweng na
106_0189 kgokahanong ya inthanethe ha ho
106_0199 ikutlwang a boheha ha a
106_0203 modern standard arabic
106_0204 ho cbrnm e ke ke
106_0205 snake river plain
106_0210 molamo wa mmateboho a di
106_0211 bigeye tuna southern bluefin tuna
106_0216 pope paul
106_0223 bofe bo qobellwang ke bili
106_0227 o ye a re di
106_0230 ho nahanwa ho re e
106_0237 vector space
106_0239 greek cypriot area
106_0242 ne a jere kgetsi ya
106_0247 ho ka ba le qabang
106_0249 tahwa ha a na tlhompho
106_0251 re se re sa phele
106_0254 independent complaints directorate ha o
106_0255 afghan national army
106_0257 ne ke re ha ke
106_0259 le ke ke la amohuwa
106_0260 ne a ye a utlwele
106_0269 e ka nyollelwa kopong ya
106_0279 sir harry warden sir harry
106_0281 o a e phehisa kano
106_0284 ee bo ne bo methwe
106_0286 ya akhauntu e kopanngweng ho
106_0289 a ka se tshwarwe ka
106_0294 ka kgangwa ke lerole ha
106_0299 difariki ya ka ha ho
106_0300 le ho se thabiswe ke
106_0302 partial differential equations
106_0304 e le sekgukhuni o ne
106_0306 batjhelete ho phahama le ho
106_0321 kereiting ho ya ho e
106_0340 john von neumann
106_0341 ke ho re ho se
106_0352 ho ruta le ho ithuta
106_0353 lefellwang ho the director general
106_0361 o rerileho mo hlasela a
106_0370 pampitshana eo e be se
106_0373 rational choice theory
106_0376 a behwe ha a behwe
106_0380 hloboha ho mo hloboha ka
106_0381 le ha ho se na
106_0391 ho fanyehwa le ho kgaotswa
106_0400 amohelwang ho ba eo ho
106_0402 e se e le dikgutsana
106_0405 e ka nnang ya unwa
106_0408 african development community
106_0412 natural law party
106_0414 chinese civil war
106_0420 e latetswe le ha e
106_0427 martin luther king
106_0444 e qethohile edumella matswejana ho
106_0445 o se a le ho
106_0448 ya ka ha e a
106_0449 le tshwerweng ha e le
106_0450 dikwari le ho ripitlwa ha
106_0451 o mobe o tletseng lehloyo
106_0454 be o mo lakaletse mahlohonolo
106_0456 professional baseball teams
106_0457 fact date june
106_0464 c felehetswe ke tjheletana ya
106_0468 kokoroha a saretswe ha mmuelli
106_0469 o ne a sa itlwe
106_0471 e qadile ho o tshwenya
106_0476 di ne di na le
106_0480 le phonyohile ka soba la
106_0483 states environmental protection
106_0484 cold war era
106_0486 los angeles county
106_0496 swiss german dialects
106_0500 ho thehilwe ho arolwa ha
106_0505 british army personnel
106_0506 nuclear magnetic resonance
106_0507 eo ke e shebileng ka
106_0509 ha e nnqwe e tshetse
106_0520 boiteko bo etswang ba ho
106_0521 le lesweu o feleheditswe ke
106_0522 second polish republic
106_0524 cannes film festival
106_0530 se le sa nkge leseporo
106_0533 le mohlang le o kgamang
106_0534 ho ke ke ha hlokahala
106_0539 narrative a re qoqela ka
106_0542 ka iphumana ke se ke
106_0543 ka tshwanelo le ka ho
106_0546 phofue ka tshohang e tshwasitswe
106_0547 red hot chili
106_0550 eo ha ho se ho
106_0555 le hoja ke ne ke
106_0557 e kgahlehang tjhabeng se setsho
106_0558 di popcorn di ka kgathatsa
106_0559 flagship radio station
106_0560 mmuele le ha a ne
106_0565 kansas state university
106_0579 european central bank
106_0583 national basketball association
106_0588 population growth rate
106_0591 e fanweng di a fumaneha
107_0001 ba hore moralo o lebisa
107_0002 konsarete ya mmuni ya ho
107_0006 ke ya ba le ditlhapiso
107_0009 nnyeo ba ne ba shwele
107_0010 boloi le bokweta di phatlalatswe
107_0011 ho sutha mokgweng wa thekolohelo
107_0015 winter olympic games
107_0017 close air support
107_0018 ngodiso di a latelwa ngodiso
107_0022 e re tataisang menahanong le
107_0026 southern baptist convention
107_0032 ya ho pholosa ka ho
107_0034 civil aviation organization
107_0035 le ho se inyatse ha
107_0042 matlotlosia ba seba o ne
107_0043 ba kgathatswa ke ho se
107_0047 itholela a re tu phokojwe
107_0048 ho bora e sa bolelwang
107_0049 sa deidro di a kgolweha
107_0051 cuban missile crisis
107_0052 international human rights
107_0058 eo leyena o ne a
107_0060 sir isaac newton
107_0061 deputy prime minister
107_0068 ba ho laola le ho
107_0073 south american nations
107_0075 npi e na le kantoro
107_0078 a e tshepetswe ka nqe
107_0089 tlhaka ya basotho p t
107_0090 e a etswa ho tadimilwe
107_0091 utlwileng ka ho nyalwa ha
107_0095 o se nw e seno
107_0111 tjamelaneng le indasteri ya merafo
107_0112 thabiso o re o a
107_0113 v a ke ke a
107_0120 ka ha e le tlwaelovv
107_0121 horeo yentle le hamohlomong o
107_0122 ha re a phekgohe a
107_0123 ba thaothwang ba ne bangongoreha
107_0124 katamelo e tobisitsweng ho phofu
107_0125 united states navy
107_0126 ho na le boleng ba
107_0132 e phutholohile ha e ya
107_0135 human immunodeficiency virus eo ka
107_0138 a ka ba le badudi
107_0140 o e lebiswa ho wa
107_0146 clarify date november
107_0147 e hlabang makotikoti a sa
107_0150 o ba kentseng projekeng ya
107_0152 e ne e le lekonstabole
107_0153 ne a ikemiseditse ho mo
107_0154 aterese ya moaho ya bodulo
107_0156 le esong ho ka le
107_0160 democratic labour party
107_0164 sejura le le se latelang
107_0165 boiteko bo fokolang ba ho
107_0171 botjha le ho hlaola diphoso
107_0172 eo a ya lefung o
107_0175 e ne e le tsotsi
107_0176 o rera ho ya pensheneng
107_0178 seka sekwa le ho phutho
107_0179 ho ithata ho ithlokomela le
107_0181 human rights watch
107_0182 presidential representative democratic
107_0185 ha ba ne ba ye
107_0186 tshohile ba thothomela ba sa
107_0187 le web administrator ka ho
107_0190 e ntsieditse e a nkimela
107_0194 mekgele e se e wetse
107_0200 ho lokisa wili ya ka
107_0203 hweletsa sabese se ikgarile ka
107_0209 ho ya ka botekgeniki le
107_0211 a amanngwang le ho namela
107_0212 ba a inehela ha ho
107_0216 nations general assembly
107_0219 maleme e ne e le
107_0220 botebong ba thabahadi a epe
107_0221 ao o a sebesisitseng a
107_0222 mmetwane ho nyenyefatswa ho tetekwa
107_0223 ba dikolobe tje o a
107_0224 di be le kgutsufatso e
107_0225 sa ntshwaneleng le ho ntshwanela
107_0226 o sa qeaqee le ho
107_0229 ke a ba a thoholetswa
107_0230 le ikarabellang ho peholeihlo ya
107_0233 power parity comparisons
107_0235 ka ba le tiehiso ka
107_0236 ntate na o a elellwa
107_0237 ya bohlabaphio ya rivonia di
107_0240 o a phuthuloha le sefahlehong
107_0243 a ho se tshwanelwe ke
107_0244 phahamele mapoqo e sa le
107_0247 o ho tenang a ho
107_0248 foreign exchange reserves
107_0249 ha a ne a latola
107_0250 wa boraro le ha ho
107_0251 la matekwane na ha se
107_0253 ho botjwa ha komeshene ya
107_0254 a bathaoti ho tsakgwebo a
107_0255 american community survey
107_0257 eo re ka e fihlelang
107_0259 close corporation di partnership ditlelapo
107_0261 be e le ho fahla
107_0264 swaba a re potlololo ha
107_0267 le f ka ho hlohlomisa
107_0268 ha o na le dipoleo
107_0270 se nkwang e le mputso
107_0273 e kenyelletsang le e lebisitsweng
107_0274 ho se ikamahanye le dipehelano
107_0275 discrete fourier transform
107_0276 ubella ditsuonyana a sa mekamekane
107_0279 ho mmuelli ke ha a
107_0281 silivera o pshatlehile ho pshatleha
107_0283 lekola botjha le ho hlaola
107_0284 united nations general
107_0285 eo e ne e le
107_0286 bui sana le mec ya
107_0287 ne ba qenehela bara ba
107_0288 early bronze age
107_0291 wa genevieve wa ho ba
107_0292 ho hoholo ha ho rentwa
107_0293 a ka kula a holofala
107_0295 united states declaration
107_0296 le yogathe e ka nwewa
107_0298 quotas ho be le dikotlo
107_0303 le phuputso e nyalanang le
107_0304 home loans pty limited eleng
107_0305 ya matjhaba e kenetsweng ke
107_0306 teile ka maqai a matonana
107_0310 comic book series
107_0312 molotov ribbentrop pact
107_0314 e fata e kuputsaka marole
107_0316 ramosebetsi a faneng ka tumello
107_0317 greek lang grc
107_0318 le meralong e kopantsweng ya
107_0319 meqoqong ya botswalle ha le
107_0320 e kgolokgolo eo gabriel biala
107_0321 itshetlehile tshebedisong le tlhalosong ya
107_0322 roman catholic writers
107_0323 ke ba re ba nahanne
107_0331 na le ho se hlake
107_0332 la lkb le khm ho
107_0333 ha mashodu a sa otlwe
107_0334 ha ho le lefifi kgathe
107_0335 national hockey league
107_0336 thirty years war
107_0337 ba di thu sang tshedimosetso
107_0338 ho ke ke ha thwe
107_0339 kaofela re ne re hopola
107_0341 tshotleho ha se ditlhong lemanyofonyofo
107_0342 nebank ho ke ke ha
107_0343 dikelellong le maikutlong ha ho
107_0344 bo hlothe ka ho sa
107_0345 la phuputso tokisetso katiso le
107_0346 hlwauwe ke commander le ka
107_0347 e hlomphehang ya ho re
107_0348 ho iphupuletsa ka bobona e
107_0349 selasela theepe ya dimo a
107_0351 se ba tsamaile ho setse
107_0354 home field advantage
107_0356 ho boranta boranta o re
107_0357 world cup players
107_0360 e ngotswe fatshe ke le
107_0362 ba thuhakang ba kakasakang ba
107_0363 fact date august
107_0365 ya ho re ho uwe
107_0369 ba ho pshatla le ho
107_0371 san suu kyi
107_0372 di le botsho bo bopudutswana
107_0373 mdr tb e bakwa ke
107_0374 ya paye e sa fumaneheng
107_0376 ne ho tsongwa ho jalwa
107_0379 e hlwekileng e bileng e
107_0381 le maikarabelo a ho kgothaletsa
107_0383 motor vehicle manufacturers
107_0385 ne re re kiai ka
107_0386 o ne a tlamehile ho
107_0387 ho mo hlekahleka di mo
107_0388 ka ha ho phehelletswe ho
107_0391 ho loela ha demokerasi ya
107_0392 moodi le menyepetsi ye maswabi
107_0395 batjhana ba se ke ba
107_0396 ho se hlokomele ke se
107_0397 hloohwana e qethohile edumella matswejana
107_0399 le meetlo le ho haha
107_0402 le ho tswellisa dithoto le
107_0403 wa ditokofele le ho arolelana
107_0405 platinum group metals
107_0406 ho fetola se qapodisitsweng ho
107_0407 le ha e le efe
107_0410 bo a e i o
107_0411 national health service
107_0412 yohle eo o re nehang
107_0413 le bodiponkonono banaba hlodiyang le
107_0414 ka ho ja direthe ke
107_0416 o be monyebe ha o
107_0417 lepatlapatla ho ya e laumela
107_0418 ho ya ipatlela makgulo a
107_0419 amohelehe le ho fihleleha ha
107_0420 ntlafaditsweng le ho matlafatswa ho
107_0423 pampitshaneng e kgolwanyane e be
107_0424 le ha mohatsaka a ne
107_0425 ho phefomoloha ha ho hotle
107_0427 ya sehohwana le mmutla e
107_0429 ba wa boitsekong ba ho
107_0431 golden globe film
107_0432 e mmedi eo o ithutileng
107_0433 ha e sebetse kalafong ya
107_0434 eo ho ka ikiswang ha
107_0438 ka ntshwe di sa fohlwa
107_0439 french west africa
107_0441 o ntshepisa mahodimo le mafatshe
107_0443 ba ra mo etsetsa meetlo
107_0444 a bokolone le apareteite a
107_0445 lekgaba la poone le omeletse
107_0449 re ho se ho le
107_0451 o ne a tlamme moriri
107_0452 ya sedika sa ho voita
107_0454 moiketsi ya sa llelweng ho
107_0455 ne ba ka qoqaqoqa ho
107_0457 ka fepelwa le ho adima
107_0458 dipetlele le ditliliniki le ho
107_0460 citation needed reason
107_0461 le ombudsman le fsb di
107_0462 a thunngwa le ho bolawa
107_0463 ho ntsha mosi ka lengope
107_0464 mokitlane ba ke ke ba
107_0468 eo a e lefuweng anthe
107_0470 o tlwaetseng ho ba hlorisa
107_0471 foufetse ba holofetse ba qhwadile
107_0472 tshophodi di ka utlwisisehang ka
107_0475 e tlotlwang ke e fetisang
107_0477 papatso ee e reretswe bomang
107_0481 masilo o botswa o bohlaswa
107_0486 o ne o sa e
107_0487 le mr t a ba
107_0489 e ka hlahang e sa
107_0493 ka ba le koitara koitara
107_0494 mohloka ho thetwa itekele itekele
107_0496 ho monya jusi e hwamisitsweng
107_0499 ho imelwa le ho imelwa
107_0500 mokgeng wa mashala di fokotsehile
107_0506 ka bapiswang le a botjhabatjhaba
107_0509 british overseas territories
107_0510 o se nyahame o na
107_0512 le mahaha le lebe letsopa
107_0513 botlaila bo ne bo kanna
107_0514 e ke ke ya lefellwa
107_0515 la batjha ba kenelang dithupelo
107_0517 hoseng e sa le ka
107_0520 di re thobela diponono di
107_0522 thubile dijana ke ho dubakana
107_0523 ho hlekwahlekwa boipepeso bo sa
107_0524 a nenga ntsea dutseteng a
107_0526 a b ya e le
107_0527 e ikanetswe ho e tiiseditswe
107_0528 c ha ho ya ka
107_0530 lotlobong ho ya ho le
107_0532 e ne e le lengwee
107_0533 na setsomi se ne se
107_0535 ikopanye le moofisiri wa tshwaro
107_0536 programming language family
107_0537 res ipsa loquitur
107_0542 dithelevishenehammoho le ba masedinyana ba
107_0543 teronko e ne e mo
107_0544 a tlohelletse ditedu di le
107_0545 tshola tlhako morong o qatile
107_0546 common law jurisdictions
107_0547 se ne se sa mo
107_0549 la thefuleha ha firi a
107_0551 re he a tlelwa ke
107_0554 ka phallelaho sylvester ho mo
107_0558 a se a behile meja
107_0562 pope leo
107_0563 e kgodisan g ho amohelehileng
108_0001 o thatafallwa ke ho sebedisa
108_0002 eastern orthodox church
108_0009 kgweding ya phato mantsiboya ke
108_0010 matle haholoholo ha ho shejwa
108_0011 a e sebedisitseng phehisanong e
108_0013 ba ke re re qhalle
108_0020 ha di tlo phatlalatswa ho
108_0024 le ho se hlahiswe hofe
108_0027 mrm e ne e le
108_0028 ozone layer protection
108_0029 fact date march
108_0032 e ne e ipoqa seretseng
108_0039 phedisano a shebane le ho
108_0040 tennweng ke kedibone e mesesane
108_0041 ne e le ya v
108_0042 ya ho bora e sa
108_0043 e metle eo a e
108_0045 ka kgahlwa ke none e
108_0046 ha a sa a qapodisa
108_0050 bophirima boloi ba mampolane bo
108_0056 re sa lwana ha e
108_0057 high school students
108_0059 united states environmental
108_0060 military coup
108_0061 mo tsokotsa ya ba ya
108_0064 e le afeng moikopedi a
108_0065 e se e le dithungthung
108_0068 kgohlong ka ha a ne
108_0069 boshodu bo ne bo le
108_0072 di a behwa ka tate
108_0075 political parties established
108_0081 lehano e sa kgoneheng ha
108_0083 a re o a mo
108_0085 tlhahisoleseding yohle eo o re
108_0086 org wiki wikipedia
108_0091 tsalefatshe ke majoro eo ha
108_0092 eo e ne e jellwa
108_0094 maintains diplomatic relations
108_0095 french revolutionary wars
108_0096 diwoto di ka ba le
108_0097 science fiction films
108_0099 be o le modudi wa
108_0101 e sa etseng phaello di
108_0102 registrar of animal improvement e
108_0103 metal musical groups
108_0107 mosotho le ha a se
108_0108 a boikarabello v e kgothalletsa
108_0109 ke o antsha phooko ha
108_0110 na o lekotse alaenemente le
108_0111 e kaale ha o se
108_0115 ne e ka ratwa ke
108_0119 tlaleho e itshetlehileng bokgoning e
108_0120 melata le ho se be
108_0121 sa thabelwe e be motlotlohadi
108_0122 ke ya thabelang ho rongwa
108_0123 ya ho ipuella ho eo
108_0124 ha se re mmopi o
108_0125 a diranta ke ho re
108_0126 o ne a sa e
108_0128 ba ha re kokololo le
108_0131 le le kaalo o ne
108_0132 lebeletsweng tshebeletsong ka ho ikgetha
108_0133 ho ya ka tokodiso ya
108_0134 ya hleng a tiiseditaba le
108_0136 a b c d le
108_0137 ke tshwanelwang ho o hlwa
108_0139 ha a se a hodile
108_0140 ya ho thonngwa le d
108_0141 ntlha le ha e le
108_0144 di ka etsuwang di le
108_0145 ha e na thusoho na
108_0146 ya makatsang e le ka
108_0148 aaraba ee ke ne ke
108_0149 e ke be e e
108_0150 to information act ke ho
108_0152 lebisang popong ya tlhalohanyo e
108_0154 o ntlela ka kedibitlahadi ya
108_0157 e nyarosang a be a
108_0159 new prime minister
108_0161 bo hodimohadi ba boprofeshenale nonoso
108_0163 free trade area
108_0164 hahlaula ha e le boqheku
108_0165 se emele ho phatloha ho
108_0166 a ba a mo fa
108_0168 a se hlabela hloohongha a
108_0169 popular tourist destination
108_0170 humid subtropical climate
108_0171 le vitamini e ka ho
108_0172 be motlotlohadi thabohadi medidietsane le
108_0174 le mahlonoko motseng wa naledi
108_0175 ne e le tjaka hara
108_0176 ho tsebisa gems mabapi le
108_0177 o qadile ka mathaithai a
108_0179 ho kwalwa ho sa hlokeheng
108_0180 ho kgoneha ho be le
108_0181 ho ne ho tsongwa ho
108_0183 ka re ho ya ka
108_0184 ditlhabela ha o mpona ke
108_0185 le sa utlwahaleng a sa
108_0186 le hlomphehileng mohatsaleqwetha o nyametse
108_0187 e se e itshetjha e
108_0188 sa se medisa wa se
108_0189 wa bohokedi okgonang le o
108_0190 e le bohlokoha e le
108_0191 kabong ya ditekanyetso le ditaelong
108_0192 mr t a ba a
108_0193 ho lothanwa ba lothuwang ie
108_0194 ha e le ho totoba
108_0195 relatively small number
108_0196 le mepeletotshwano mahlalosonngwe malatodi le
108_0197 ho be le ho se
108_0198 ba seafrika bo hlomptjhwe o
108_0199 a sa ka a robeha
108_0201 karohano ya ho ya ka
108_0202 ha e bonahale ntlafalong ya
108_0203 wa bodulasetulo ba sadc ho
108_0204 united states presidential
108_0205 kgwebo e ka thoko ho
108_0209 late middle ages
108_0211 mehala ya ka malapeng le
108_0212 jang setoto ka lere ka
108_0213 le molaodikakaretso wa ka ho
108_0214 ha e ke be e
108_0215 ha le re tjhapa le
108_0216 o na le kgwao ka
108_0218 a hwehla ka letsoho ho
108_0219 ispia monnafeela a kwetelwe ke
108_0220 matsholo a ikgethang a temoso
108_0221 le diambulense e ne e
108_0222 be o re tjodietsa ka
108_0224 ho inkela diqeto ha ba
108_0225 ekasitana le marangrang a dikgokahano
108_0226 ba na le shere e
108_0227 a nkehile mathakeng ao ke
108_0230 ho mokomishenare wa ditlhapiso p
108_0231 o be mohlodi lengwele le
108_0232 mo jesa ba mo robatsa
108_0233 e hopotseng e sa wele
108_0234 ba ne ba sebaqaleletse ho
108_0235 ka phaphosing ba ne ba
108_0236 new york mets
108_0237 boitshepo bo kgotsofatsang ha a
108_0238 papua new guinea
108_0239 ho ka bakela ho feroha
108_0241 dar es salaam
108_0253 sa re hlahele re bohlale
108_0254 e tshabe ho ba tlohedisa
108_0255 ne e le moqebelo ka
108_0256 ho sebedisetswa ho lekanyetsa diphetho
108_0257 ho ba le boitemohelo ditsong
108_0258 le diphetoho ho ya ka
108_0259 tjheka moriana thoteng ha a
108_0261 eo moradiae a sa lokelengho
108_0263 ao o a bokelletseng a
108_0264 bothile dinonyana di ipatile dirobeng
108_0265 achievement award winners
108_0266 ke lebohile ho menahane ka
108_0267 a lefshwa ho ya ka
108_0268 ya lebalang moetsuwa ha a
108_0269 a tsebiswe ka boikemisetso ba
108_0270 mekgeng e sa sireletsehang ba
108_0271 ne a se leqhoko a
108_0272 ka kakaretso le c ho
108_0273 american sign language
108_0274 ka ha ho boletswe le
108_0275 ha eo a e ya
108_0276 ba tshepahalang ba na le
108_0277 sa ye ngakeng o e
108_0279 ya ho se itekanele e
108_0282 ha ke re mmao o
108_0285 o mo phehletse sefuba sa
108_0286 ya ho tsamaela ho lebeng
108_0288 a ne a kudiswa ka
108_0289 guano islands act
108_0290 a tsebise b a mehang
108_0291 tshwela tb e ipatileng e
108_0293 tlung eo le e kopanetsweng
108_0294 ba saps criminal record centre
108_0295 e a ko hlo ntjwetse
108_0296 le mamosa e ne e
108_0297 a se a e na
108_0298 united states district
108_0299 wa kelly o ne o
108_0300 biri a re o hlaphola
108_0301 roman catholic priests
108_0302 afidavite e arabang e kentsweng
108_0303 dikgoho botsikwane bo ba qete
108_0304 le re kgethollang le re
108_0306 le ke bothabang o a
108_0308 queen elizabeth
108_0309 emelang le ho di fa
108_0311 ya homeland ya qwaqwa le
108_0313 le ba senyehetsweng ke tsonad
108_0314 ba re morwa o bohlile
108_0316 otukang malakabe a maholo a
108_0318 lekgotla la diphuputso la temo
108_0319 e boetse e na le
108_0320 se fofonela se a kopola
108_0321 ho re ha aphela o
108_0322 asian nations asean
108_0325 thwasang se ke ke sa
108_0327 se inong ho bolellana makunutu
108_0328 o se o e lebetse
108_0329 a mo atamela ba buabua
108_0332 ba itokisetsa ho ya moketeng
108_0334 le ho bo labalabela botsofadi
108_0336 e kentse leoto ka kgamelong
108_0337 re ho ntatate ba ye
108_0338 e kengwe setempe ke rejistra
108_0339 president richard nixon
108_0341 le eya matubatsana ke a
108_0343 o nkopile ke ne ke
108_0345 ba sa mamele le ho
108_0347 ho iphaphatha le lebopo la
108_0348 o dulelletse ho hlorisana le
108_0350 tadi o tsejwa ka mereto
108_0351 american revolutionary war
108_0352 sa mahwelereng se ahilweng katoropong
108_0353 ne a sa utlwisise a
108_0355 ya sejwalejwale e nkehang ha
108_0357 ka kamoreng ke ntano robatsa
108_0359 ha a ka a fetohela
108_0360 ya diindaseteri e beheletse ka
108_0361 ya sethathong ho ka ba
108_0362 king philip
108_0363 be e be mohlankanyana a
108_0364 itshepile noha ha e ntshwe
108_0366 thakadi di fatelang ka teng
108_0367 ho tsetelwa moruong le dikarolwaneng
108_0368 ba o hemang ha o
108_0369 falle ha re falle ke
108_0370 phahamisa ditokelo ho kenyeletswa tshebdiso
108_0371 eo a nnileng a e
108_0372 e tjhaelwe monwang ke ba
108_0373 di fetolelwe ke mofetoledi ya
108_0374 ahile london le moahlodi arthur
108_0376 ne a hlabile dioka e
108_0377 e feletswe ke ho ba
108_0378 verify source date
108_0379 leno e ne e le
108_0381 sehalo le se taele di
108_0382 le ho phehisana le mafatshe
108_0383 nkong ke molebedi eo ho
108_0384 ho ya ka bolekodi ba
108_0385 o ne a le makgenefanyana
108_0386 nakongena mohale o ne a
108_0387 bo ne bo sa amohelehe
108_0388 mehlengwa ka seipheo sa ho
108_0389 wa monnamoholo o shapuwe ho
108_0390 sa kgahlehe e le diqhwala
108_0392 ka pakana ya sakarete le
108_0393 academy award nominations
108_0394 day saint movement
108_0395 a tsielehile e le ka
108_0399 ya eketseha ka ho bonahalang
108_0400 professional sports teams
108_0402 mekgatlo eo eseng ya mmuso
108_0403 ho se tsotellwe ho se
108_0404 podumo ya moemanotshi ya ba
108_0405 so fele tlhophollo ya ho
108_0406 ha o sa di hlokomele
108_0407 kgutlong sa mmila o kenang
108_0408 ba di emelang baemedi ba
108_0409 wa kgwedi le kgwedi o
108_0410 ka be o sa ka
108_0412 okosejene o ke ke wa
108_0413 ho kenyeleditse le tekanyetso e
108_0414 lokolla le ho re ho
108_0415 di se o tshwenye o
108_0416 le kgaphatseha ho setloholo sa
108_0417 tshimolohong o tsebile e sa
108_0418 se kwetsweng ho ya ho
108_0419 los angeles area
108_0420 se lebelletsweng k h r
108_0422 ho na le mahlasedi a
108_0424 ka ho tsuba boikwetliso le
108_0426 ho ba le phihlelo ya
108_0428 a se hatoha a se
108_0431 matleng le mananeong a matlafatso
108_0433 ha e le ho rothisa
108_0434 le se tshohane le re
108_0436 le be le ditsebo le
108_0437 ha e ba le tlokotsi
108_0438 mohwehadi ha di thabiswe ke
108_0439 le ho tsetela le meruo
108_0440 le diqhwaha le dipudumo ho
108_0442 ne e opa a nyokgoloha
108_0443 ke advocate le ha ho
108_0444 ha le boulelle sowana ba
108_0445 le ho lwantshana le botlokotsebe
108_0446 e tla be e le
108_0447 le ho bohehang ho sa
108_0448 o ne a boetseatshwerwe ke
108_0450 le he e ye e
108_0451 o re bopileng ke a
108_0452 chicago white sox
108_0453 ka letsholo la ho baballa
108_0454 e kathoko ho tlhopho e
108_0456 alwana ya kgumamela ka ha
108_0457 okametseng a ka hokela taelong
108_0458 le ho mo qhobella majwe
108_0459 booki di lefelletswe kemosuwehlooho tsholo
108_0460 di na le ditsebo le
108_0461 tatello le karabelo phehella ho
108_0462 di romeletswe ka thelefekse di
108_0463 ke maranran g a fepelang
108_0465 british overseas territory
108_0466 le dintwa vmme e ne
108_0467 ho hlotjhwa ha ba di
108_0468 bo botlo le bo ka
108_0469 o tswile kotsi e mpe
108_0470 dikgaolo le ho re hlahisetsa
108_0471 largest ethnic group
108_0472 phemiti ya ho kganna ya
108_0473 roud ya wto re kgodisehile
108_0474 motjekong bashemane re ne re
108_0475 di boletseng e sa fokotse
108_0477 di anti retroviral le ya
108_0480 efatshe wa rakebi selemong se
108_0482 nkgetheng la kamohelo ya ho
108_0484 mebileng di bolawa ke dikoloi
108_0485 se ne se hlabehile habohloko
108_0486 e ne e le nonyana
108_0489 lelapeng ho ka ba le
108_0490 molamu o kopane le tshepe
108_0491 ka ha o se o
108_0492 oo ho ne ho le
108_0493 badan pusat statistik
108_0494 ha se etsahale ka ho
108_0498 re phahamisitswe ke ho kgwathwa
108_0499 ke re ho ya ka
108_0503 le be le mo dikelle
108_0504 kgothaletso ya boikgwantlello le ho
108_0505 ke ba arolelanametsi a yonale
108_0506 dijonyana snacks a tsholwa ka
108_0507 ho na le letamo le
108_0508 ho ya ka mosebettsi wa
108_0509 le dikokonyana di na le
108_0510 di le matlapa di thella
108_0511 screen actors guild
108_0512 ho ka iteanngwa le ba
108_0515 ludwig von mises
108_0516 ho ja papa ya lephotho
108_0517 o ne a sa suthe
108_0518 mohloki ya kgesehang kgutsana le
108_0520 eo o sa e utlwisiseng
108_0521 european union le ahile diphaposi
108_0522 wa ho lahlwa ha dikgwerekgwere
108_0523 supreme court ruled
108_0524 le phehiso e tlotlehang malepeng
108_0526 mo hlahetseng mo romelle karete
108_0527 khomishene e ikemetseng ya dikgetho
108_0529 samina o imme ya nyarosa
108_0530 boikutlo ba ho tshepana pakeng
108_0531 ho ba le rejistara e
108_0532 wa boitokisetso le meralo ya
108_0534 eo ha e ka kgaoletswa
108_0535 o ne a kgabelletswe ka
108_0536 ya projekte le kananelong e
108_0537 wa ho hlwekisetsa bommisisi dijarete
108_0538 meloko ya ka moso e
108_0539 mongata e le wa dijareteng
108_0540 ho ya ka makgoro le
108_0541 science fiction convention
108_0542 se tshwasang dihlapi ke sekepe
108_0544 d e le f ba
108_0545 american football conference
108_0546 ba le pin ya ho
108_0547 international labour organization
108_0548 onelopele ya tjhata ya ho
108_0549 burundi comoros sudan haolo ho
108_0550 a hamme e tswele le
108_0551 le be le dikele na
108_0552 gibbs free energy
108_0553 ne a se a le
108_0554 ha o ya ho e
108_0555 a ne a le bodutunyana
108_0556 ka sms sms benefit lookup
108_0558 balaodi le bahlakisi ba dibuka
108_0559 majwala a le tshosa ka
108_0561 late eighteenth century
108_0562 ho re a ye le
108_0563 hloko o nto araba dipotso
108_0565 o ne a ikane pontsheng
108_0566 madison square garden
108_0567 ho fopha ho sututsa ho
108_0572 e yeng e be ya
108_0573 ho re moreneng ho hlahile
108_0574 a qela holeoto o ne
108_0575 na le tokelo ya ho
108_0577 saenneng wili ya sethato ha
108_0578 ka ke ne ke le
108_0580 tlamehang ho ho ya ka
108_0582 ha ke e hloke le
108_0586 ha o na thaere eo
108_0591 english civil war
108_0592 ka ikela masihlwane o nea
108_0594 e le o unneng ka
108_0597 civil class
108_0598 mesi mehudi dikgase le diphofudi
108_0599 le ha e se wa
108_0600 bela di a hlweba madiba
108_0601 tshwarehile ha o le manganganyanatjena
108_0603 fact date october
108_0605 ha bathobabaholo ba ka ba
108_0606 chinese martial arts
108_0608 di malebana le ho se
108_0610 ha a ka a ahlolelwa
108_0612 ha ke no ebola tapole
108_0615 le ho ba ngatana e
108_0621 itahla a so ye le
108_0623 ecstasy lsd le ka boheroin
108_0624 re ya ka nnqeng e
108_0626 ko re phetele he ka
108_0627 ha re ne re ka
108_0628 letlole la inshorense ya ho
108_0629 television series debuts
108_0630 bafta winners people
108_0631 ya ho fa medimo dimpho
108_0632 ke na le kgwaonyana ka
108_0634 re tlotlolotse re ne re
108_0636 a mokokotlo neural tube defects
108_0639 a ye boyabatho eka makatikati
108_0640 ya ho ya llifing e
108_0641 ke o honothele ka ha
108_0642 toronto blue jays
108_0643 se builweng ke sebui se
108_0644 force khashane o butse mokete
108_0645 tsamaiswe le ho fetoha le
108_0646 o motsho le o mosweu
108_0647 e jehang e le ka
108_0648 a re o ne a
108_0649 ho ba dihlabi maphelong a
108_0650 policy on financial awards pfa
108_0653 ha e le letahwa o
108_0654 bahlahisi mabenkele a rekisang le
108_0655 ne a sa le monnyane
108_0657 civil liberties union
108_0659 ha a ne a di
108_0660 ya netweke ya prime cure
108_0661 k h r pilisi sirapa
108_0665 r ho se be le
108_0666 ha e shwe ha e
108_0668 great northern war
108_0670 average household size
108_0673 ho bahloki ba dimilione ba
108_0677 big bang theory
108_0678 le moorosi ba ne ba
108_0679 se a ne a ye
108_0681 ba baholwanyane ba bananyana e
108_0682 bo tadinngweng ka ho ka
108_0684 eastern orthodox christians
108_0685 hoja e ne e se
108_0686 re o se ne a
108_0687 tjhebahalo paterone mokgabiso le kaheho
108_0688 ahuwe ka makote se le
108_0689 le ho ja phepo e
108_0691 reverse polish notation
108_0692 ya ditho ya inthanete member
108_0693 e phehelle ho ba le
108_0695 ka afidavitepehelo eo o ikanetseng
108_0696 ba e na le dinqalo
108_0698 cipro ha o se o
108_0700 atjhetjha ha se be le
108_0702 eo ke bonang ho le
108_0704 ha a tloswe ha a
108_0708 real gdp growth
108_0709 ha moqosuwa a hloleha ho
108_0710 mmokelletsi ya lefshwang khomoshene ya
108_0711 ke se ke itshwetse mokgubu
108_0714 ji go roc sichi haj
108_0715 a ileng a ba a
108_0716 ha e a dumellwa ho
108_0718 o tswetswe a le lekgutla
108_0719 bo tsanyaola modidietsane bare mmopi
108_0720 le utswitsweng jj le b
108_0721 se mo sunya sephephetjhana se
108_0722 ba bangodi babohi le ho
108_0723 qalehong ya kereite e ka
108_0724 mo hlanohetse ho mo hlanohela
108_0727 nyarela ka fesetere oo ke
108_0728 tshepahala ha botsamaisi bomolao boikarallo
108_0729 di sa fetohe bophelong ba
108_0730 ho re ho ya sepoleseng
108_0733 wa silivera o pshatlehile ke
108_0734 le ha ba sa e
108_0735 le ha ke re ke
108_0737 di timanwe e se bohobe
108_0738 ke ke ra ikotla difuba
108_0742 dithuto di tadingwa di na
108_0746 sa kgahliseng e be re
108_0747 ke a buellwa ke leqwetha
108_0749 oo o re phetelang ka
108_0750 ba kgethile disakarete le dithutswana
108_0752 mo eletsa ka ho re
108_0753 ka e ne e le
108_0754 principal ideal domain
108_0755 hlophisitswe ka ho ya ka
108_0757 air force bases
108_0758 ho petsoha le ho epeha
108_0759 e be o a iphetela
108_0761 bontshwa ka ho kengwa ka
108_0762 ba ke ba hahlwe ke
108_0763 ha a re o a
108_0764 office administration ka ngollano ha
108_0765 entela feberu e tshehla ha
108_0766 diseili faeba tlelase patsi le
108_0767 ya sephiring ya ka le
108_0768 bo boletsweng leqepheng la ditaelo
108_0769 ho hodisa le ho totobatsa
108_0770 malapa a tjamelane le diphepetso
108_0771 major political parties
109_0004 ya regulatory inpact assessment ria
109_0005 ba le ho se hlahiswe
109_0007 table mountain e apesitsweng ke
109_0008 ba tshehang ba keketeka ha
109_0009 le ho tloswa ha matlakala
109_0010 khoto ya biri ka boholwanyane
109_0011 seafrikanse din e di le
109_0013 latin american countries
109_0017 a re qiti maphethelong a
109_0024 ne bo se bo ka
109_0025 kgothalleditsweng ho na le ho
109_0027 ha e se ho ntumedisa
109_0030 ke sa e hlalohanye ho
109_0031 e ne e le mohaladitwe
109_0037 le ha dihlakanahloohwana di ne
109_0041 sehang terata e meutlwa e
109_0043 la kgoho pehele o e
109_0044 ririanya kameriri yare ha lelakabe
109_0046 ne e le lebelete le
109_0047 parreira le dibapadi ka botsona
109_0050 le le bohlale ho mpheta
109_0051 dinyehelo kgwebong e ka ba
109_0052 interim prime minister
109_0053 ding ke be ke ipotse
109_0057 palestinian national authority
109_0058 ne ba nwa le ho
109_0059 television shows set
109_0063 ba ke ba koqame ka
109_0064 laka la ka la nomoruweng
109_0070 mojaho ha a ke ke
109_0071 ha re mpeng re di
109_0072 ho phahamisa boemo ba profeshene
109_0073 le bohlweki moaparong le dipuong
109_0075 bophiritona ba re ho o
109_0076 ya a b le c
109_0081 eo ho ka ikgethelwang ho
109_0083 thabohadi medidietsane le pitiki ya
109_0084 mehopolo le dintlha tse e
109_0086 cambridge university press
109_0087 ne e se e nyeunya
109_0088 ha ho tluwa tabeng ya
109_0092 new zealand english
109_0095 ka ho shapuwa ke e
109_0097 san francisco giants
109_0098 le khroumu letsopa lehlabathe le
109_0100 tangtang ya kgangwa ke lerole
109_0104 football league teams
109_0106 sekepe sa ho tshwasa ditlhapi
109_0109 le ho adoptha ho itholla
109_0110 ka ho ya ka diafidaviti
109_0111 ke seikokotlelosethusangmotho ha a na
109_0113 a ja ha ke kgore
109_0114 ntho e ntenang ka ho
109_0119 o ne o re ke
109_0120 ya ho sutha mokgweng wa
109_0121 ho kwadiaka ho hlakana a
109_0124 ba hohlola le ho ba
109_0125 vicky strydom o tshepisitse ho
109_0128 ao mohlahlobuwa a nehelaneng ka
109_0131 wa selalomehadi sa sekwenyamatjhaba ha
109_0132 hlalositsweng ho tjhata ya mahlatsipa
109_0136 feela leha ho le jwalo
109_0137 two umthetho wa se tjele
109_0138 sydney opera house
109_0139 ke ne ke sa lwane
109_0143 ke ka lona e se
109_0146 francis ford coppola
109_0148 le kgonwe ho fihlelwabakeng sa
109_0150 jwaleka ha ho hlalosetswe mohato
109_0152 e buela sekgukgung dikgotjheletsaneng ha
109_0157 e bmosiuwa ke mohlahlami boreneng
109_0160 ha e ke e binwa
109_0161 le ne le ba etseditse
109_0162 e na le boithati bo
109_0163 microwave background radiation
109_0164 a mo laole le ho
109_0166 independent media diversity trust ha
109_0169 tlisitsweng ke bokoloniale aparteite le
109_0170 ho ya dikopanong le disimphosiamong
109_0172 science fiction fandom
109_0173 lossless data compression
109_0174 e etsetswang bafumanehi le dihlopha
109_0177 ka mahahapa tlatlapo ya ditsha
109_0180 ikamahanya le ba reretsweng ditaba
109_0181 founung botoloki ba founu bo
109_0183 le ho ba nolofaletsa ho
109_0184 ne a hloriswa kehlooho e
109_0186 se ntshitsweng ke laboratori e
109_0192 ho nnetefatsa lekunutu la molli
109_0194 ha e betsetswa ka fensetere
109_0195 ho etela tulo eo ho
109_0198 ba se ba tshwasitse tlhapi
109_0204 gold medal recipients
109_0205 numeric character references
109_0211 tlelapo ya lantjhe b o
109_0212 tjheseho ya ho ka di
109_0213 a ka kgaotsa ho tsuba
109_0215 warring states period
109_0217 di utlwang di na le
109_0218 a ananelwang ke ldab le
109_0219 mmamesa poeyana re senotswe re
109_0220 ho natefisa le ho hatella
109_0223 a phakisa ho o nyahlatsa
109_0225 le utlwisisana a ka le
109_0227 lebitla ee ho ne ho
109_0228 se amoha tlokola se e
109_0229 national football league
109_0232 ya metara wa karata le
109_0233 shebuwang le nomoro ya ya
109_0235 eo e feletswe ke ho
109_0243 american film institute
109_0244 charles sanders peirce
109_0245 ho utsuwa mabenkeleng a ka
109_0247 ho qoswa ha mokhomishenara wa
109_0248 president lyndon b
109_0250 banna anthe perekisi e monate
109_0251 fixed point theorem
109_0254 ka meferefere ha ho se
109_0255 wa sejapane ho ne ho
109_0256 los angeles times
109_0260 international criminal tribunal
109_0261 qobe le ho nena dinyehelo
109_0263 re ka ra iketsa marematlou
109_0264 e ka beng e sa
109_0267 hwa jewa dikuku le nama
109_0269 ba ya re tlole ka
109_0272 hello world program
109_0275 di sa tsitsitse a re
109_0276 la nkgwebetha la re ke
109_0277 tu ebile ha ho sa
109_0282 kgoho e tshwerwe ke mokoeyo
109_0284 makubetso le ho ja ho
109_0288 ke sa ka ka botsa
109_0289 ha senyeha ka holong ya
109_0290 adriaan a mema borakgwebo ba
109_0291 matatiele ha a ne a
109_0292 ke ne ke hloname ke
109_0294 re le ha e ne
109_0295 occupied cypriot area
109_0296 digital equipment corporation
109_0297 iran iraq war
109_0298 sa utlweng ditsebeng le ba
109_0299 ha ho le hongata ho
109_0301 le e governance e learning
109_0302 bo sa amoheleheng le ho
109_0304 a se a futhumetse a
109_0306 o hlekefetswa ka ho shatjwa
109_0307 le hojane ba ne ba
109_0308 sa mo natefele hakalo a
109_0311 ba ka susumetswa ho ya
109_0312 high school alumni
109_0314 ho halofo ya didika lemetseng
109_0315 e ke ke ya inkelwaka
109_0317 wa casalis e ne e
109_0318 science fiction hall
109_0320 national football team
109_0322 le ha e le lefe
109_0323 thelevesheneng le seyalemoyeng mananeoa behelwa
109_0324 ho re ha e le
109_0325 ngwananyana waseithati ya tshepileng ho
109_0326 e totobe tseng sebopehong sa
109_0327 ka ho o tjodietsa ka
109_0329 ba monyetleng wa ho hahlamelwa
109_0330 jwala o mmitsa kgowanatshwana lejakane
109_0331 mahloko a kgaello ya ayodine
109_0333 ya bafu e ya e
109_0334 battery park city
109_0335 hamorao ho ye ho etsahale
109_0336 ke hle ke o jwetse
109_0337 ke futswela bohobe ka menyepetsi
109_0338 ke enwa o se a
109_0339 a ya ha malomae ho
109_0340 russian orthodox church
109_0344 gravitational potential energy
109_0346 le ho se latelwe ha
109_0347 ka online lefatsheng lohle ka
109_0348 ya buka eo o ithutileng
109_0349 seikokotlelosethusangmotho ha a na le
109_0350 party united states
109_0351 eo nalane le jokorafi di
109_0352 late twentieth centuryodowska curie
109_0353 geologic time scale
109_0354 ha a ka ke a
109_0357 operation enduring freedom
109_0361 a ho enta le ho
109_0362 states district court
109_0366 tswekere ya illovo e tshweu
109_0368 le ha ho se ho
109_0371 box office success
109_0372 ho borithane ho ba ka
109_0374 re o fiela phaposi ya
109_0376 united states supreme
109_0379 moetsi ketso moetsuwa katoloso jj
109_0383 ke tjhefo e kwaeng e
109_0385 a thupelo diphetolelong le tlhaolong
109_0389 president franklin
109_0390 o sa qoqweng ke dipapiso
109_0391 e sa nepahalang e sefuwe
109_0393 re tsho ho ne ho
109_0394 ha di sa le setlwaeding
109_0396 o ithetsa ka tsiemokopu e
109_0399 le sa le letjha ho
109_0400 ne a futsitse lebitsola haehobanee
109_0402 ka ha ho bontshitswe tekodisiksong
109_0404 greenhouse gas emissions
109_0405 yom kippur war
109_0407 states coast guard
109_0409 clarify date january
109_0411 ke ikutlwa ke imolohile moyeng
109_0415 ka taelo ya tshireletso ya
109_0417 ie seoa se unang ho
109_0419 a fetotswesekatana semamina seiphumolo sa
109_0420 dihlekehleke madiboho marokgo le metjhophoro
109_0423 letlaila le ho tlaila moreneng
109_0424 marapo ka ho ya ka
109_0428 ho tshwana e re nke
109_0429 maiteko a ntjhafaditsweng a dinaha
109_0430 ke ne ke safufulelwa ho
109_0431 mabothobotho a bonojana bo tsotwang
109_0434 billion years ago
109_0439 sa ho ntshetsapele ikonomi e
109_0440 ho na le lera la
109_0441 o amohetsweng ka ho qoholleha
109_0443 eo re mo tswetseng o
109_0449 thusong e arabelang le e
109_0450 o ne a pudukane ho
109_0452 air traffic control
109_0453 ho hlahlobisa le ho ntjhafatsa
109_0454 apesa ho kupetswe bofeela ba
109_0456 lokodisitsweng ke mofuputsi ho kenyeleditswe
109_0457 ke sehwai sehwai se kgothetsa
109_0458 lebelletswe ho rerisana le ditsebi
109_0461 procedural programming languages
109_0462 ba ruisitse maqheka a bohlalefi
109_0466 ho na le di hansard
109_0470 o ikenya tshotso dinaleng o
109_0472 momahanyo le ho boikamahanyo ba
109_0473 e a nenwa naheng ya
109_0475 ha ke re o utlwile
109_0476 hlokahalang le matsapa a ho
109_0477 e le o kolotang ka
109_0478 ka motjhanae ontse a hotse
109_0480 lefshwang ka tlaase le baithaopi
109_0481 football clubs established
109_0483 natural gas reserves
109_0486 appointed prime minister
109_0488 ka ho ngolla moromowa ho
109_0489 a itlhompholle ka ho phetela
109_0490 ho re ho na le
109_0491 o na le kgohedi e
109_0492 le moputswa pududu a sa
109_0496 mo kwalamolomo ka seatla sa
109_0497 bo ne bo hwebisana le
109_0498 o mphara ka melato eo
109_0499 e hokahaneng tlwaelo ya ho
109_0500 theilweng ka ho ya ka
109_0501 melaetsa ya ditshoso ya ditshokelo
109_0502 na ho sehwajwang ho rokwa
109_0505 thothokiso le ya sengolwa sa
109_0506 ho tsamaisana ka ho lekanale
109_0507 ya ho fa bangga ba
109_0508 e le ha ho jewa
109_0509 sports clubs established
109_0510 lokiswa ha masalla a setopo
109_0511 ho be le phumantsho e
109_0512 boahisani le european union maelana
109_0514 ya ho ba mahlabeng ha
109_0517 a akgeha ha a le
109_0518 ke kene morerong oo wa
109_0520 world heritage site
109_0521 kgothaletswe ho iqalla le ho
109_0525 ka tshoha ke se ke
109_0531 tafoleng eo ho tsebiswang ho
109_0534 ka mabaka a utlwahalang ho
109_0535 human rights violations
109_0537 e le mojalefa ya ngodisitsweng
109_0538 ho na le kgathatseho ka
109_0539 le baphedisuwa ba ka e
109_0542 american league championship
109_0543 e se e hlahelletse poyaneng
109_0544 a itshehela a ba a
109_0545 mookgo o ne a iballa
109_0546 containing video clips
109_0547 a post graduate di institjhusheneng
109_0548 methodist episcopal church
109_0549 re se re kgenne e
109_0552 manufacturer for agoa particulars di
109_0554 institushene e tshepuweng ka ho
109_0556 tu ha ho sa na
109_0557 ha o re o a
109_0561 ba hlwauweng ka ho ya
109_0562 eyes wide shut
109_0563 high seas fleet
109_0570 le ho se ba fe
109_0571 ho phethela boikwetliso ba thapameng
109_0572 free software programmed
109_0573 re majalefa a sekema se
109_0574 la ho se utlwane ka
109_0578 round table le rotary le
109_0579 ha e a etswa ho
109_0581 ka ho qolleha ba kopanye
109_0582 ho ba ramotse tikolohong ya
109_0583 tefo ditshehetso le menyetla e
109_0587 ao a sa ka a
109_0589 wa mooki tliliniking e ka
109_0591 o be o mo lakaletse
109_0598 trust ya ntsahetsopele le ka
109_0604 jwaleka ha ho hlalosetswe mohato
109_0605 le nafci le tshwarahane le
109_0606 e buela sekgukgung dikgotjheletsaneng ha
109_0607 a lefuweng letloleng la mohlokomedi
109_0608 o a ntlhola ngwanaka ha
109_0609 ho robala ke ho fetoha
109_0611 e bmosiuwa ke mohlahlami boreneng
109_0612 a ke ke a re
109_0613 ekare ke a iketsisa ha
109_0614 ha e ke e binwa
109_0616 e na le boithati bo
109_0617 microwave background radiation
109_0618 a mo laole le ho
109_0619 o sa tshwanelang ho e
109_0620 independent media diversity trust ha
109_0621 e sebetswa letsatsing leo e
109_0622 ntjha le diphetolo ngodisong e
109_0623 tlisitsweng ke bokoloniale aparteite le
109_0624 ho ya dikopanong le disimphosiamong
109_0625 nkga a re phu ke
109_0627 lossless data compression
109_0628 e etsetswang bafumanehi le dihlopha
109_0629 ba srsa ho ya ka
109_0630 be o itheola seriti ha
109_0631 ka mahahapa tlatlapo ya ditsha
109_0632 ha ke re o a
109_0633 le ho sireletsa lehlakore la
109_0634 ikamahanya le ba reretsweng ditaba
109_0635 founung botoloki ba founu bo
109_0636 di lekole kgafetsa re lokise
109_0638 ne a hloriswa kehlooho e
109_0639 ka disutu o ne a
109_0640 se ntshitsweng ke laboratori e
109_0641 di hlaphohetsweng ba ne ba
109_0645 le polao eo e sehloho
109_0646 ho nnetefatsa lekunutu la molli
109_0648 ha e betsetswa ka fensetere
109_0649 ho etela tulo eo ho
109_0650 be e bonolo e napahetseng
109_0651 ke ya sa ba hlalosetseng
109_0652 ba se ba tshwasitse tlhapi
109_0653 ha o se o fihletse
109_0654 qatile mohatla kobo di fokaela
109_0655 eo ba be ba be
109_0656 baokajeno e sengele dikgutsanakgudu ke
109_0657 ho akaretsa le ho kgema
109_0658 gold medal recipients
109_0659 numeric character references
109_0660 re roba dipelo he moradia
109_0661 sebeditsweng lehlaso o be o
109_0662 se le re rao le
109_0663 eleng pharela le ha ho
109_0664 molaong melawaneng le molaong o
109_0665 tlelapo ya lantjhe b o
109_0667 a ka kgaotsa ho tsuba
109_0668 dipatlisisong a ka bitsa dipaki
109_0669 warring states period
109_0671 di utlwang di na le
109_0672 a ananelwang ke ldab le
109_0673 mmamesa poeyana re senotswe re
109_0674 ho natefisa le ho hatella
109_0675 ha re e lemeng re
109_0676 ke ne ke sa kgolwe
109_0677 a phakisa ho o nyahlatsa
109_0679 le utlwisisana a ka le
109_0680 ha ho bonahale e le
109_0681 lebitla ee ho ne ho
109_0683 national football league
109_0685 ne a ka feresa le
109_0686 ya metara wa karata le
109_0687 shebuwang le nomoro ya ya
109_0689 eo e feletswe ke ho
109_0690 tlala morolo ha e le
109_0691 lene le sa thapiswake boikaketsi
110_0002 di mathuleng a ho finyella
110_0003 ha ho kwae koomeng ho
110_0004 difariki ya ka ha ho
110_0008 e le sekgukhuni o ne
110_0009 ya ka robalang a sa
110_0010 batjhelete ho phahama le ho
110_0013 ha ho ne ho timetswa
110_0014 ho hiv le phamokate o
110_0015 o ne a hlophisitse o
110_0016 ke tshwanetseng ho ya ho
110_0018 mokg watshebetsong wa ho tokafatsa
110_0019 le a ka la ba
110_0020 ka ho founa di ka
110_0021 le se le hopotse ho
110_0023 sa ho kopanela tekenoloji phetisetso
110_0024 kereiting ho ya ho e
110_0025 a mofilwe ke ngwananyana ya
110_0026 le finnweng lefito o madimabe
110_0028 komiti ya tekolo ya tekano
110_0029 mamelletsemonate wa borosolo ha bo
110_0030 ya d e f le
110_0031 ya ho ruta le ho
110_0032 e late latailana e ne
110_0034 ne di sa mo natefele
110_0035 ditereke ho thakgolwa ha foramo
110_0036 a kgopisehile o ne a
110_0037 ba sa tshepahaleng ke tshokelo
110_0038 ho phethesela hakana tjhe ka
110_0039 leshome le metso e mmedi
110_0041 ho na le ba binang
110_0042 ba ne ba tshepisane a
110_0043 ke ho re ho se
110_0044 a se a fetohetse le
110_0045 a e ka ballwang ho
110_0046 o kgabisa kamalente a mafubedu
110_0051 o na le ho se
110_0052 ya ho ingodisetsa ho vouta
110_0053 ho ruta le ho ithuta
110_0054 lefellwang ho the director general
110_0059 konteraka ba tlangwa ke ditumellano
110_0061 le ho ntshetsapele le ho
110_0062 o rerileho mo hlasela a
110_0064 o mo tshwantshisa le taemane
110_0066 o le kgethong ya sapphire
110_0067 o beilweng ho fa dipehelo
110_0068 ba ka utswa phahlo ya
110_0069 o ne a nyetse sethepu
110_0070 pampitshana eo e be se
110_0073 a o shobile a o
110_0074 le mafumahadi le mmini o
110_0075 a behwe ha a behwe
110_0078 qetella o se o kopanetse
110_0083 boikgohomoso le ditlontlollo re ka
110_0085 le sa kokota ha ka
110_0088 yah ore asasemente e se
110_0089 ho fanyehwa le ho kgaotswa
110_0090 ditumelo borui tshebedisano le diqhwebeshano
110_0097 amohelwang ho ba eo ho
110_0102 e ka nnang ya unwa
110_0103 di etetseng ha le ne
110_0104 osama bin laden
110_0105 hodimohadi ba boprofeshenale nonoso ya
110_0107 ha ke a kgomaretswa ho
110_0110 kgutlele ho sera sa ka
110_0112 makala a makgotla a dinyewe
110_0113 ho ntahla ke le mokana
110_0114 e latetswe le ha e
110_0117 ho ahlola ka ho hirwa
110_0119 ka sejatlhapi ba re ke
110_0120 ntlhola ha o se o
110_0121 e o alafang e letotong
110_0122 e susumeditswe ke ho se
110_0123 ba fellwa ke takatso ya
110_0124 wakebolelwa e be o hobosa
110_0125 ka mokgwa o sa tlwaelehang
110_0128 ho ke ke ha qojwa
110_0133 motla o tutswe wa jeremane
110_0134 o be o sehelle mahlalosi
110_0135 e qethohile edumella matswejana ho
110_0137 bolokolohi le ho ikutlwahatsa ka
110_0138 bohlokwahadi ya ho sebeletswa ka
110_0140 le tshwerweng ha e le
110_0141 dikwari le ho ripitlwa ha
110_0142 o mobe o tletseng lehloyo
110_0143 ho ya kaboholo ieboleng ba
110_0144 makwala re ne re a
110_0145 be o mo lakaletse mahlohonolo
110_0146 ke ho re ba bojwalane
110_0147 bokantle ba makasine o arabe
110_0148 motlanyatsi ya ka sehlohong wa
110_0150 e hlotsa e mo tseiditse
110_0151 ha ho se ho kgethuwe
110_0155 ha re ka qhella ka
110_0156 ke palesa ha e le
110_0157 kokoroha a saretswe ha mmuelli
110_0158 o ne a sa itlwe
110_0159 ba sehopotso pelong ya ka
110_0160 e qadile ho o tshwenya
110_0163 ba sekgowa ke ha a
110_0164 di ne di na le
110_0165 ha ho le hobe o
110_0168 le phonyohile ka soba la
110_0172 ne a ye a kgonye
110_0173 ba se ikutlwe ba phahametse
110_0176 o itjelletse kgera o tletleba
110_0177 ka ho phahamela ho hlwibila
110_0178 a se a sa ye
110_0179 ne a rwetse masale a
110_0181 ditho ya inthanete member online
110_0182 ne a sa phetse ho
110_0183 ba belehwang ba e na
110_0184 ho thehilwe ho arolwa ha
110_0185 fetotse afrikaborwa mmaraka wa bonao
110_0186 qetelletse a se a sa
110_0187 cell lung carcinoma
110_0189 british army personnel
110_0190 nuclear magnetic resonance
110_0193 ha e nnqwe e tshetse
110_0195 a ne a mo thobetse
110_0197 ho tsamaiswa ha mehlape ho
110_0198 ha ho hlokeha ho batho
110_0201 eo a reheletsweng kayona ha
110_0202 e be e hohelang e
110_0203 ke foko mmetso ke pataolo
110_0206 second polish republic
110_0208 cannes film festival
110_0209 le setjhaba ka kakaretso di
110_0210 o fetisetsapelebakengsatsatlhahlobisoyammele patholoji thekenolojiyabongaka le
110_0211 kola sa lebollo tlotlo elebiswangdiketsong
110_0212 ya bohlophisi ya ho foreima
110_0213 kgahlano le ho qhelelwa ka
110_0214 se le sa nkge leseporo
110_0216 ya sekiri sa ho hama
110_0219 ha eo a sa hutse
110_0221 lesisithehonyana ho ka phunya seso
110_0223 narrative a re qoqela ka
110_0228 ka ho iketsahalla ho se
110_0230 phofue ka tshohang e tshwasitswe
110_0231 red hot chili
110_0232 lesotho e ne e le
110_0236 siilweng ke ntata diepollo a
110_0237 senyesemaneng le afrikanseng ha ho
110_0241 e kgahlehang tjhabeng se setsho
110_0243 flagship radio station
110_0246 ya sehlekehleke sa deidro e
110_0247 ba be le lekeno la
110_0249 kansas state university
110_0250 a ka tshireletswa ke paja
110_0251 ke mathela ho sylvester eo
110_0253 ka mahlokwa a fohlilweng makgapetla
110_0254 motsana wa menkgwaneng o qetse
110_0255 mohwebi mohlahisi mopotlakisi le mofetodi
110_0257 le sa duletseng boshof re
110_0259 ke eo mo a emeng
110_0260 mefuta le dibopeho tsa dipolelo
110_0263 european central bank
110_0264 ba wa kitikiti kitikiti kitikiti
110_0265 boela o o bale hape
110_0267 national basketball association
110_0269 ao ke qetang ho o
110_0272 population growth rate
110_0274 ya mmino ya medumo ya
110_0276 bo be bo mo timelle
110_0278 ha ba itokisetsa ho ya
110_0279 ne a mo laile ka
110_0282 di ka bolokelwa phomosetso ya
110_0284 o phethelwa ho o hlahlamang
110_0288 a rwetse masale a fubedu
110_0290 le kgolofalo ya ho ya
110_0291 san diego padres
110_0294 ke wa bonaha re se
110_0297 tleloupung le mmapeng wa atlelase
110_0298 second continental congress
110_0300 ba are lemela kapaba re
110_0306 ne e le makaroff nthwe
110_0307 di sa fahlwa a kokosile
110_0308 sekgahla se kahodimo ho sa
110_0311 re a be re sa
110_0312 etswe o se o le
110_0313 kgarafu ya sekopo ho raohile
110_0314 ba dikalaneng ba mo tsebileng
110_0316 se seka sekwa le ho
110_0317 bo bottle le ho tataisetsa
110_0318 tsebiso ofising ya moporemiri di
110_0321 ho nona mohaditsong a re
110_0323 a barui ka ha e
110_0324 a mo nyaretse le fensetereng
110_0325 ke se ke ka kgoba
110_0327 e le dillo le ditsikitlano
110_0328 le ho bitsollakaka bakgotsi ba
110_0329 american quarter horse
110_0331 ne o ka ba tlamella
110_0333 tjheke e romelwang ka ho
110_0334 e re kg kg kgrr
110_0335 o rwesitsweng ofisiri eo ya
110_0336 a qalelle ho rohakana a
110_0338 kgetholle ka morabe le ho
110_0341 a sa batleheng ka ho
110_0343 ya ka kgotsofallang ho ba
110_0344 ke kutlwi siso ya ditlhokeho
110_0347 ho ba sedi mehopolong e
110_0348 a tshwaye a ipapisitse ka
110_0349 ba tsepame ba otlolohile ba
110_0350 eo di mo tshwarang ho
110_0352 piet o letlaila ha o
110_0358 mosebeletsi wa laeborari ya heno
110_0359 united states code
110_0360 tampa bay buccaneers
110_0361 e ipatileng tb e tsohileng
110_0362 se lokolohileng bofumeng le bohloking
110_0363 o se o na le
110_0366 di kenyelletswe le ho hlabollwa
110_0368 european union member
110_0369 ba batshehadi le ba batona
110_0370 e ke ke ya rarolla
110_0371 le tjhesa le le ka
110_0373 referense ha ho se ho
110_0379 manol lwa ka bo tlalo
110_0381 mmidimidi oo ho ne ho
110_0382 lemotsotso ho ya kamooseroki sesusumetsehangkateng
110_0384 ka bophara le ho bopa
110_0385 a be le phehisano le
110_0386 oxford university press
110_0390 mootlwana wa moma katibanyana ya
110_0391 ya ho falwa le ho
110_0392 ngwanelajakane a ba a timellwa
110_0394 ka kgang ha ke re
110_0395 congestive heart failure
110_0398 wa tlhahiso ya lenanetsamaiso la
110_0400 pooneng ha o se o
110_0401 se sa thuswe ke moemedi
110_0402 ke ne ke le manganga
110_0403 mafubedu a re tlere setebele
110_0405 ya botegniki patlisisong ya dikotsi
110_0406 resources ke ha mekgolo leaves
110_0408 islamic conference members
110_0409 ke thabile hakaale ha e
110_0411 democratically elected government
110_0412 ba shwelletse mokuleng ka boomo
110_0414 e mo hlekefetsang ke ba
110_0415 di billiard ho haha le
110_0416 ke ne ke o laya
110_0420 a re ake uke ichi
110_0422 di na le sethethefatsi se
110_0423 a nthuta ho fina setebele
110_0426 ne e le ho ya
110_0427 monokotshwai ha o butswe ka
110_0432 di kwetswe le mafelong a
110_0433 ditemeng e jere molaetsa o
110_0434 e nkuwa e le thekenoloji
110_0436 ba ne ba tsheheditse ho
110_0437 a laolwe ke gcis ba
110_0440 frank lloyd wright
110_0442 naletsana ya ka ra shebana
110_0443 ho kopana ka ho intsha
110_0444 mekutung ya kontinente ya ho
110_0449 be le se le ya
110_0451 ho ikisa ntlwaneng erekaha a
110_0452 di itshetlehe kamanong ya dibui
110_0453 ha e na ho tshetswa
110_0455 eneng e le ho qobisa
110_0456 belehwang ba e na le
110_0459 o kgutla a se a
110_0460 ne ba se ba mo
110_0461 a iphetapheta e tswile lekoteng
110_0462 a ke dithothokiso b ke
110_0463 new orleans saints
110_0464 ka tatolo ba kgemang le
110_0466 hlokehe ha ho se ho
110_0467 algebraic number theory
110_0469 ba sa e thabela dieketseng
110_0471 o lokile ba crime stop
110_0473 ho ba boimanyana ho le
110_0476 a sa utlwusise ho re
110_0477 le mosebetsi wa profeshenale wa
110_0481 ka mantaha laboraro le ka
110_0484 a theohe koloing eo ya
110_0491 ho khanseling ya borutehi le
110_0492 ya ikokobeditseng ya ithobileng o
110_0493 new england patriots
110_0494 high middle ages
110_0495 he ke se ke le
110_0496 ho o nahanisisa ho o
110_0500 moahlodi e moholo a ka
110_0504 katoloso ya ho hirwa ha
110_0505 re soqete ho foroma mmaditaba
110_0513 id ya morekisi le id
110_0514 magnetic resonance imaging
110_0515 o ye a re o
110_0519 eo o e badileng qotsa
110_0520 o motjodi o tono se
110_0526 eo e neng e le
110_0528 eo ke e nyatsang ke
110_0529 supply chain management
110_0530 american military personnel
110_0531 ba le thulano ya dikgahleho
110_0533 a qholotsang a na le
110_0534 ba e ola ka sekotlolo
110_0535 dipampitshaneng ho se ho tsamauwa
110_0538 ke re o nkgitlile dibete
110_0539 hlanohetswe o hlanohetswe le ke
110_0540 nkabe ke kgaohana a ko
110_0541 ke la ya le kgonwana
110_0547 socialist federal republic
110_0548 e le e tlokomang ekgaphatsehang
110_0550 ya roma ha mafefowane ke
110_0552 le ho bakang ho kgathatseha
110_0555 james clerk maxwell
110_0556 ka kemo ya moloa ha
110_0557 ya masetso e ikarolang ho
110_0559 ba lekalala fet re tshepahore
110_0560 tamiflu e ke ke ya
110_0561 ya matshediso re se re
110_0562 bilateral immunity agreement
110_0564 e ka sebediwang betere ka
110_0566 ne a sa rate ho
110_0567 a qophella ho iphetetsa ho
110_0568 o ke ke wa utlwi
110_0570 ba saene phatlalatso ya botshepehi
110_0572 ha di hlaloswa ke sentebaleng
110_0575 bo bashana ha ho na
110_0576 ya betlileng ya pentileng ya
110_0578 ke mohiri e moholohadi wa
110_0580 hubble space telescope
110_0582 birth missing living
110_0584 di bakuwe ke ho se
110_0585 ka phethahalo le ka ho
110_0586 ditjhankana re ntlafatse boalaodi ba
110_0587 leto di ngata ma tshwao
110_0588 a o susumeletsang ho se
110_0589 ba boholong ba bommasepala ba
110_0591 o saennwe ke moamehi ya
110_0592 leotong ho ya tswabokalakateng ho
110_0594 le ho kolokotjhana e le
110_0595 e apereng letlalo la nku
110_0596 re na le makgutlana a
110_0600 ka neville gawula a ho
110_0602 tseko ho realo mmatseko a
110_0606 baeme matlotlosia ba seba o
110_0607 ha e tadingwe e le
110_0609 sele le bohweng ba ntja
110_0611 ke qati o a lomisanwa
110_0614 e se e le maobane
110_0615 oo ho laetsweng ka oona
110_0616 a kgohletse a le dibebe
110_0617 ho bulela bongatane le ramafothole
111_0001 gravitational potential energy
111_0003 le ho se latelwe ha
111_0005 ya buka eo o ithutileng
111_0006 seikokotlelosethusangmotho ha a na le
111_0007 party united states
111_0009 late twentieth centuryodowska curie
111_0010 geologic time scale
111_0011 ha a ka ke a
111_0014 operation enduring freedom
111_0017 sa kgotsofatseng ya cjs ha
111_0019 states district court
111_0023 tswekere ya illovo e tshweu
111_0030 ke iphetola setshehisa sa rammolotsi
111_0033 united states supreme
111_0036 moetsi ketso moetsuwa katoloso jj
111_0040 ke tjhefo e kwaeng e
111_0046 president franklin
111_0050 re tsho ho ne ho
111_0056 le sa le letjha ho
111_0059 ka ha ho bontshitswe tekodisiksong
111_0061 greenhouse gas emissions
111_0062 yom kippur war
111_0064 states coast guard
111_0066 clarify date january
111_0067 ho thweng ke hotsitsi eo
111_0068 ke ikutlwa ke imolohile moyeng
111_0071 di hlwekile di sa tshwehle
111_0072 ka taelo ya tshireletso ya
111_0073 le ka mohla o le
111_0075 ne ho e na le
111_0077 dihlekehleke madiboho marokgo le metjhophoro
111_0080 letlaila le ho tlaila moreneng
111_0086 maiteko a ntjhafaditsweng a dinaha
111_0089 ho santaco re ke ke
111_0091 billion years ago
111_0096 sa ho ntshetsapele ikonomi e
111_0101 se e le wa semanyamanyane
111_0102 supa ku tlwisiso e kgabane
111_0107 o ne a pudukane ho
111_0109 air traffic control
111_0110 ho hlahlobisa le ho ntjhafatsa
111_0111 apesa ho kupetswe bofeela ba
111_0112 npo le ha ho le
111_0114 ke sehwai sehwai se kgothetsa
111_0118 procedural programming languages
111_0119 ba ruisitse maqheka a bohlalefi
111_0122 ne bangongoreha meyeng ha ba
111_0129 momahanyo le ho boikamahanyo ba
111_0130 e a nenwa naheng ya
111_0132 ha ke re o utlwile
111_0136 ya penshene le ya ho
111_0138 football clubs established
111_0140 natural gas reserves
111_0143 appointed prime minister
111_0146 a itlhompholle ka ho phetela
111_0149 le moputswa pududu a sa
111_0152 ha di hlophiseditswe ho ka
111_0154 bo ne bo hwebisana le
111_0155 o mphara ka melato eo
111_0156 e hokahaneng tlwaelo ya ho
111_0166 sports clubs established
111_0168 ho be le phumantsho e
111_0169 boahisani le european union maelana
111_0173 a b c d o
111_0175 ke kene morerong oo wa
111_0176 letlole la ho ya pensheneng
111_0177 world heritage site
111_0179 rarahane e na le ditumelo
111_0183 ya bosebolelo ya ho qhelela
111_0185 ka phaposing ya ho phomola
111_0186 citation needed april
111_0190 le se le mo rutile
111_0192 human rights violations
111_0196 le baphedisuwa ba ka e
111_0199 american league championship
111_0203 containing video clips
111_0204 a post graduate di institjhusheneng
111_0205 methodist episcopal church
111_0208 wa ba wa leka wa
111_0210 institushene e tshepuweng ka ho
111_0216 kuruetswa ke ho re a
111_0218 eyes wide shut
111_0219 high seas fleet
111_0220 le bitleng la mmaletrato le
111_0224 ke utlwile bothabiso ba re
111_0228 free software programmed
111_0230 la ho se utlwane ka
111_0234 round table le rotary le
111_0238 ho ba ramotse tikolohong ya
111_0239 tefo ditshehetso le menyetla e
111_0241 oo ho ona mongodi a
111_0245 wa mooki tliliniking e ka
111_0255 e se e le motsheare
111_0258 mekga e thusang ka ditjhelete
111_0262 e kgotjwa e le maoto
111_0263 ho ja ha o na
111_0267 tshenyeho ya mesifa mascular dystrophy
111_0271 summer olympic games
111_0277 african development bank
111_0278 official diplomatic relations
111_0279 a se a swentse ka
111_0280 hugo award winning
111_0282 ho dumedisa mmamoruti ha a
111_0283 e be ke mokgethi wotong
111_0286 a ikemisetse ho reupella le
111_0287 wa matsibolo a se a
111_0290 pitsa e phehang gauta ka
111_0293 ba intshang sehlabelo ka ho
111_0294 barutwana le matitjhere ba be
111_0296 la dikgokahano ba in communications
111_0298 following demographic statistics
111_0300 johann sebastian bach
111_0301 se nw e seno se
111_0302 amateur radio operators
111_0305 sa mo re shwato nkong
111_0306 human rights abuses
111_0307 nafvsa e na le phaposi
111_0312 international auxiliary language
111_0315 congressional gold medal
111_0316 atomic energy commission
111_0322 aung san suu
111_0323 wat sal my nou te
111_0327 ka re makau ke sebapadi
111_0329 irish republican army
111_0332 le le ka sekotlong sa
111_0334 mohlomi o ne a etelwe
111_0335 sa nkge leseporo le kgutletse
111_0336 hlotjhwa ha ba di shebelletse
111_0338 se a kgahlilwe ke ka
111_0339 ho se ho ho le
111_0344 roman catholic bishops
111_0348 na le seroto se sa
111_0349 international maritime organization
111_0350 tebetebeng eo o nkentseng ho
111_0354 di sa le setlwaeding yaletsetsa
111_0358 e lwanenela lepatlelo la dithekiso
111_0361 e re pududu a sa
111_0364 le ho ipapisa le thomo
111_0370 e se e ie dibeke
111_0371 le apesa ho kupetswe bofeela
111_0372 o ne o e so
111_0373 samuel taylor coleridge
111_0377 national historic site
111_0387 o ka tlasenyana koporo ho
111_0389 mme o sehe mola qetellong
111_0390 john maynard keynes
111_0391 tjhetjha a ba a tjhetjha
111_0392 re ba memmeng ka ho
111_0401 national security council
111_0402 ya vat vendor search ke
111_0405 o ne a hlabile dioka
111_0407 eo re ka mo kgothollang
111_0410 re be ngatanngwe ke pheto
111_0420 ba fuwe dipilisi ha ba
111_0421 a re itjhuu itjhuu itjhuu
111_0423 o se ke wa kenya
111_0427 a holetseng ba kwalehile ba
111_0428 e na le boikarabelo ba
111_0431 developments pty limited le khayalethu
111_0445 bo ke ke ba fetolwa
111_0448 metjha ya kahare ka ho
111_0456 thenthetswa le a nyonya le
111_0457 ba mapolasing balemi rui le
111_0460 o lo nkopela tafo ke
111_0463 neho sa kahaeba le lerataka
111_0478 ho letsa diletswa ka ho
111_0479 e sa hlokomelweng ka ho
111_0482 a le opela mahofi lekgutlana
111_0486 dube thankga a be a
111_0487 o a qeaqea ha a
111_0488 ka matlotlo ao re a
111_0491 o re tlotlolotse re ne
111_0495 le lesisithehonyana ho ka phunya
111_0496 underwriter ho ya ka pholisi
111_0497 le ha hothwe ke lenqosa
111_0498 ke semathi se seholo o
111_0499 e ne e le sehwabana
111_0503 ho se hlomphehe ha ho
111_0504 united nations peacekeeping
111_0506 ho sa ohlweng le ho
111_0507 ke ke ya rarolla mathata
111_0508 ditjhate diphousetara dinepe ditshwantsho diselaete
111_0509 steyn delport a fa mmueli
111_0512 ha ba hlajiwe ke dihloong
111_0521 martin van buren
111_0523 qoqwa ho a tshehwa ho
111_0524 o se ke wa be
111_0525 t o rekile senomaphodi ledikuku
111_0530 o bohlile ka letheka maru
111_0532 nka ka re ke a
111_0534 ba re ba tlosa letshweya
111_0535 ithutla a ba a re
111_0536 o be o sisinye ditlhahiso
111_0539 great leap forward
111_0540 e re ha a se
111_0544 e kengwe setempe e be
111_0547 hothwe ke lenqosa le o
111_0549 se a sa ba tshepe
111_0550 ha o se o phethetse
111_0551 e ne e le le
111_0552 e ya e honyela o
111_0553 se ho phahlwa ho phothasela
111_0557 magauta e se e le
111_0558 ka kaho ya institjhushene le
111_0562 le seroto se sa ribollweng
111_0563 ke re ke moihlwe ho
111_0564 best supporting actress
111_0565 wa tlhware ha di lome
111_0567 id le ya tshupiso ya
111_0571 african union member
111_0572 republican national convention
111_0579 joyene e fedileng ha a
111_0584 ho ka be ho se
111_0585 ho le leratanyana le thibang
111_0591 pokello ya mantle e ka
111_0592 ruburiki eo o e fuweng
111_0596 ho saena maqephe ohle a
111_0603 e sa le ka madungwadungwana
111_0604 o mo phehletse sefuba sa
111_0606 a ka ba a re
111_0607 guano islands act
111_0610 ya sepikara e ka ba
111_0611 tlung eo le e kopanetsweng
111_0612 ba saps criminal record centre
111_0613 e a ko hlo ntjwetse
111_0616 united states district
111_0618 biri a re o hlaphola
111_0619 roman catholic priests
111_0620 afidavite e arabang e kentsweng
111_0625 ya bonna le bosadi ho
111_0626 queen elizabeth
111_0629 ya homeland ya qwaqwa le
111_0630 lekoteng ho tu o balabala
111_0631 ba re morwa o bohlile
111_0633 otukang malakabe a maholo a
111_0634 ke ho tlodiswa kgathi ka
111_0635 lekgotla la diphuputso la temo
111_0636 e boetse e na le
111_0637 se fofonela se a kopola
111_0638 ho re ha aphela o
111_0639 asian nations asean
111_0640 e ka lelefala le ho
111_0641 be e se e le
111_0642 thwasang se ke ke sa
111_0644 se inong ho bolellana makunutu
112_0001 e hlabang makotikoti a sa
112_0002 ne a le popa o
112_0003 le thupelo ya tlatsetso ya
112_0005 ya ho inwella ho ituletswemoriting
112_0006 e ne e le lekonstabole
112_0008 aterese ya moaho ya bodulo
112_0009 ho nnile ha ba le
112_0010 le esong ho ka le
112_0011 kgatello e susumeletsang lehlakoreng le
112_0012 ya dipetlele le ditliliniki le
112_0013 ke inehetse a ne a
112_0015 babatsehang e nepahetseng le e
112_0016 o sa kgoneng ho bo
112_0018 sejura le le se latelang
112_0019 boiteko bo fokolang ba ho
112_0020 ka ho phetwa e be
112_0023 phehuwang le se o ferose
112_0024 ronewa o re ditlhware di
112_0026 eo a ya lefung o
112_0027 ho kgefutsohare le ho le
112_0029 e ne e le tsotsi
112_0031 hotsholo tjhoba le se le
112_0032 seka sekwa le ho phutho
112_0033 ho ithata ho ithlokomela le
112_0034 ka ho re ke thapedi
112_0035 human rights watch
112_0036 presidential representative democratic
112_0038 ho be le selelekela mmele
112_0039 ha ba ne ba ye
112_0041 le web administrator ka ho
112_0042 ha o ne o fufulelwa
112_0045 le ha mohlomongo ne o
112_0046 ditshokodiso banang le dikgathatso ho
112_0047 di ne di se di
112_0051 ba be ba ba tlontlolle
112_0052 le mmapa dikerafo le ditafole
112_0054 ho lokisa wili ya ka
112_0059 le ha o sa ba
112_0060 seqhwalasena se pudufetseng se siileng
112_0061 o ne o le e
112_0064 ho ya ka botekgeniki le
112_0065 ho kapea ka baesekele ho
112_0066 a amanngwang le ho namela
112_0067 ba a inehela ha ho
112_0068 ho tshwarana ka maqiti ka
112_0069 di na le babuelli ba
112_0070 american roman catholics
112_0071 nations general assembly
112_0072 united states postal
112_0073 e ba le tshita e
112_0074 maleme e ne e le
112_0075 botebong ba thabahadi a epe
112_0076 ao o a sebesisitseng a
112_0077 mmetwane ho nyenyefatswa ho tetekwa
112_0078 ba dikolobe tje o a
112_0079 di be le kgutsufatso e
112_0080 sa ntshwaneleng le ho ntshwanela
112_0081 o sa qeaqee le ho
112_0082 ho ya ka pfma ke
112_0084 ba mehlengena ha ba sa
112_0085 ke a ba a thoholetswa
112_0086 le ikarabellang ho peholeihlo ya
112_0087 seboni ha a ne a
112_0088 ka re e kgathetse ke
112_0089 power parity comparisons
112_0090 a bapisehe ha a na
112_0091 ka ba le tiehiso ka
112_0092 ntate na o a elellwa
112_0094 ya bohlabaphio ya rivonia di
112_0097 o a phuthuloha le sefahlehong
112_0101 phahamele mapoqo e sa le
112_0102 ne ho se ya ithekang
112_0103 sejalo sa lekgala le babang
112_0104 o ho tenang a ho
112_0105 foreign exchange reserves
112_0106 ha a ne a latola
112_0107 wa boraro le ha ho
112_0109 le ha ba ruile ba
112_0110 ho botjwa ha komeshene ya
112_0111 a bathaoti ho tsakgwebo a
112_0112 american community survey
112_0114 eo re ka e fihlelang
112_0116 close corporation di partnership ditlelapo
112_0118 be e le ho fahla
112_0119 a be pelonolo a be
112_0121 swaba a re potlololo ha
112_0123 d i ha se a
112_0124 le f ka ho hlohlomisa
112_0125 ha o na le dipoleo
112_0126 sa moraorao e ka ba
112_0127 se nkwang e le mputso
112_0129 o sa ka waba le
112_0130 e kenyelletsang le e lebisitsweng
112_0131 ho se ikamahanye le dipehelano
112_0132 discrete fourier transform
112_0133 ubella ditsuonyana a sa mekamekane
112_0134 ne ho timetswa ka ho
112_0138 silivera o pshatlehile ho pshatleha
112_0141 united nations general
112_0145 early bronze age
112_0146 ho ntheka ka leleme le
112_0147 monday night football
112_0148 wa genevieve wa ho ba
112_0149 ho hoholo ha ho rentwa
112_0152 united states declaration
112_0153 le yogathe e ka nwewa
112_0154 e le molwantshi terameng ee
112_0155 quotas ho be le dikotlo
112_0157 e le ho fenethalesea ha
112_0158 letsatsing leo e entsweng ka
112_0160 le phuputso e nyalanang le
112_0161 home loans pty limited eleng
112_0166 le ka boikutlwahatso maemong a
112_0167 comic book series
112_0169 molotov ribbentrop pact
112_0170 di finyelletse mokgatlong oo a
112_0172 ditlhaloso o ne a di
112_0173 ramosebetsi a faneng ka tumello
112_0174 greek lang grc
112_0175 le meralong e kopantsweng ya
112_0176 meqoqong ya botswalle ha le
112_0177 e kgolokgolo eo gabriel biala
112_0178 itshetlehile tshebedisong le tlhalosong ya
112_0179 roman catholic writers
112_0182 ho na le bo senyang
112_0184 mabitleng e ne e le
112_0185 dipapading e boetsa e na
112_0186 le ho reseo a se
112_0188 na le ho se hlake
112_0189 la lkb le khm ho
112_0190 ha mashodu a sa otlwe
112_0191 ha ho le lefifi kgathe
112_0193 thirty years war
112_0194 ba di thu sang tshedimosetso
112_0195 ho ke ke ha thwe
112_0196 kaofela re ne re hopola
112_0197 ho ka se be le
112_0198 tshotleho ha se ditlhong lemanyofonyofo
112_0199 nebank ho ke ke ha
112_0200 dikelellong le maikutlong ha ho
112_0201 bo hlothe ka ho sa
112_0202 la phuputso tokisetso katiso le
112_0203 hlwauwe ke commander le ka
112_0204 e hlomphehang ya ho re
112_0205 ho iphupuletsa ka bobona e
112_0207 ee a ke o re
112_0210 molli a sa ka a
112_0211 home field advantage
112_0214 world cup players
112_0217 e ngotswe fatshe ke le
112_0218 sedika ya directorate saafqis ke
112_0219 ba thuhakang ba kakasakang ba
112_0220 fact date august
112_0221 a se a sa kgahlehe
112_0222 ya ho re ho uwe
112_0224 ke ho lekanya boinyalanyo le
112_0225 ho na le maqhama a
112_0227 e ne e le ya
112_0228 san suu kyi
112_0230 mdr tb e bakwa ke
112_0231 ya paye e sa fumaneheng
112_0233 ne ho tsongwa ho jalwa
112_0234 mofu a sa siya molekane
112_0235 ha o na le dimakasine
112_0236 e hlwekileng e bileng e
112_0237 le ka kgethwang e ka
112_0238 le maikarabelo a ho kgothaletsa
112_0239 a lokolletse dikweta a kwalletse
112_0240 motor vehicle manufacturers
112_0241 a se hloleabeha lebatha la
112_0242 ne re re kiai ka
112_0243 o ne a tlamehile ho
112_0245 ka ha ho phehelletswe ho
112_0247 ya mafisa e ne e
112_0250 ya hlolehang ho ikamanya le
112_0251 ho ikamahangwa le tsanaha ka
112_0253 ho se hlokomele ke se
112_0254 hloohwana e qethohile edumella matswejana
112_0255 ka o se ke wa
112_0256 le meetlo le ho haha
112_0257 ne ho puruma tau ya
112_0259 le ho tswellisa dithoto le
112_0261 ya dikolong ba hlometse ba
112_0262 platinum group metals
112_0263 ho fetola se qapodisitsweng ho
112_0264 le ha e le efe
112_0266 ka forosekoto ya bomamphehi ho
112_0268 national health service
112_0272 ya tlhahlamano ya mafa ya
112_0273 o be monyebe ha o
112_0275 ho ya ipatlela makgulo a
112_0276 amohelehe le ho fihleleha ha
112_0281 le ha mohatsaka a ne
112_0282 ho phefomoloha ha ho hotle
112_0283 ke ho re na e
112_0284 ya sehohwana le mmutla e
112_0285 ka wekeshopo ya klwetliso ya
112_0286 ba wa boitsekong ba ho
112_0287 se bolou se ntshiwa ha
112_0288 golden globe film
112_0290 ha e sebetse kalafong ya
112_0293 ke ha eo a e
112_0294 o ne a opelwa ke
112_0295 ka ntshwe di sa fohlwa
112_0296 french west africa
112_0298 o ntshepisa mahodimo le mafatshe
112_0301 a bokolone le apareteite a
112_0303 ka se phele ka ho
112_0305 mmantshele eo wa letekatse ha
112_0306 re ho se ho le
112_0307 se ke wa lebala lenanetsamaiso
112_0309 ya sedika sa ho voita
112_0311 moiketsi ya sa llelweng ho
112_0312 ne ba ka qoqaqoqa ho
112_0313 o ne a ipolelletse ho
112_0314 ka fepelwa le ho adima
112_0315 dipetlele le ditliliniki le ho
112_0317 citation needed reason
112_0318 le ombudsman le fsb di
112_0319 a thunngwa le ho bolawa
112_0320 ho ntsha mosi ka lengope
112_0322 a itshebeletsang ka bo oonaempa
112_0324 e bohlokwahadi ya ho sebeletswa
112_0325 eo a e lefuweng anthe
112_0329 tshophodi di ka utlwisisehang ka
112_0332 e tlotlwang ke e fetisang
112_0333 e be ba sebedisana le
112_0334 papatso ee e reretswe bomang
112_0335 ha di loke ho ya
112_0339 diqwedi di be kgahlamelong ya
112_0340 re ka a fenya ka
112_0344 le mr t a ba
112_0348 manala onaa le malelele ho
112_0352 ka ramasedi ho rialo mohau
112_0353 ho monya jusi e hwamisitsweng
112_0354 ya maminanyana o se a
112_0355 a kenelo le seyantlo a
112_0356 ho imelwa le ho imelwa
112_0367 british overseas territories
112_0371 botlaila bo ne bo kanna
112_0373 la batjha ba kenelang dithupelo
112_0375 hoseng e sa le ka
112_0377 a nteleka mmantshele eo wa
112_0378 di re thobela diponono di
112_0379 pokola eo e nenge mo
112_0383 ba ne ba kopanele tulong
112_0385 e ikanetswe ho e tiiseditswe
112_0389 e mpehile merebele e le
112_0391 na setsomi se ne se
112_0392 oo ba mo lwantshang ha
112_0393 ikopanye le moofisiri wa tshwaro
112_0394 programming language family
112_0395 res ipsa loquitur
112_0398 ya mebala ya puisano ya
112_0400 dithelevishenehammoho le ba masedinyana ba
112_0402 a tlohelletse ditedu di le
112_0404 common law jurisdictions
112_0405 se ne se sa mo
112_0406 ralweng ha diterene merafong ya
112_0407 la thefuleha ha firi a
112_0412 ka phallelaho sylvester ho mo
112_0413 ha be ho se ho
112_0414 le ba tjametsweng ke bohloki
112_0416 a se a behile meja
112_0424 world science fiction
112_0427 setswantle le lefellwang ha o
112_0428 mmaeneng ha a so qete
112_0432 van der rohe
112_0434 a mo tjhehelang leraba e
112_0435 ho ntshuwa ha batshwaruwa ka
112_0437 na le ho ja papa
112_0438 following table lists
112_0440 basari ya ithutang ka ho
112_0444 le seatla ke nyenyeula eno
112_0447 e bulang metsotso e kenyelleditse
112_0448 lebitsong la seteishene sa teko
112_0450 greek new testament
112_0451 pope john paul
112_0452 ha ho na moabi wa
112_0453 sa ntsebisa le ho ntsebisa
112_0459 nepile ha a ne a
112_0462 ke ho re dimela mofuteng
112_0464 le ho ya ka baamohedi
112_0465 royal albert hall
112_0466 o na le akhaonte ya
112_0468 re o ne a ke
112_0469 haho se ho ropoha bahlankanyana
112_0473 ka re papatso ee reretswe
112_0477 ho be le kgonahalo ya
112_0478 ya invoisi e ntshitswe ke
112_0486 e be ho se ho
112_0488 ka ho re a ye
112_0491 ho ba se be le
112_0492 mookgo a phaphama maipato a
112_0495 ka botlalo le ka ho
112_0498 ho mahlatsipa a bo tlokotsebe
112_0500 batswadi ba lenyalong le maqheku
112_0501 sa tsejweng ka kgalaseng eo
112_0502 ho la riphaboliki ka ho
112_0503 ho ya ka bomeo bo
112_0504 c ho se nwe teye
112_0505 ludwig van beethoven
112_0506 ho qholotsanwa ditjhaba di telela
112_0507 ho lekodisisa ho ya ka
112_0508 di a bata ha ke
112_0509 ya seterata sa motsana oo
112_0510 ke ho re karate ha
112_0511 thoholetswa eno ha ke hane
112_0512 ne o batlwa ke mookamedi
112_0513 ke tlakana le a raha
112_0514 united states
112_0515 ntsubisa seneifi ke a o
112_0516 se kgetholle ka morabe le
112_0518 eo o e kopang ho
112_0519 south sandwich islands
112_0521 phetohonyana e makamakatsang eo a
112_0522 ha a fetohe o a
112_0523 difate o ka nqane ho
112_0524 peparemente le tjhokolete di ka
112_0525 ke mosbetsi o lenama o
112_0526 eo a akgela pitlahadi ya
112_0527 ho mongodisi wa di gmo
112_0529 a be le kutlwelo ditlhokong
112_0530 le ya ho itlhokomela ka
112_0531 ha le ne le nyalana
112_0532 ne a se a eleditswe
112_0533 lepetjo la dihlomo la la
112_0534 ha dikolo di se di
112_0535 cite journal author
112_0536 ya kgethuweng wa manyalo ho
112_0537 le mafolofolo ao se tsejwang
112_0538 le ho nyehela ka ho
112_0539 e qaphaletswa ke bosiyo ba
112_0540 mmangwana o tshwara thipa ka
112_0542 eo ngcobo nkabinde le skweyiya
112_0543 katiso di so ka di
112_0544 united kingdom parliament
112_0545 ke o inele matsoho metsing
112_0547 ho kgaoha ha phepelo ya
112_0548 molecular orbital theory
112_0549 e f le g ha
112_0550 letjholotjholo mmamaqheka e le ka
112_0551 tsitsang le ha e le
112_0552 hiriswangmotsaneng o ka thokonyana ho
112_0553 a hele a itlamele a
112_0554 ho beleswa ho phaellang ho
112_0555 a keqa a sarelwa a
112_0556 atehileng le tsepameng nlheng ya
112_0558 ya moipiletsi e nehetsweng ho
112_0559 e ne e le tjaka
112_0561 disane le bodiponkonono banaba hlodiyang
112_0564 broad based black economic empowerment
112_0565 la phytosanitary ho nppo ya
112_0567 ya ka o besang o
112_0568 nehelanong di sebe disitswe ka
112_0569 dikgaretene mekgabiso ya ka matlung
112_0571 le pansalb doe le dpsa
112_0573 bolokwa khomputareng bakeng sa direkoto
112_0576 sa le tshwantshe le la
112_0577 dumeletsweng medicine price list mpl
112_0579 le ho kwallwa ha ba
112_0580 le ba angwang le ho
112_0581 mofuta wa potso e telele
112_0582 ho abelana tlotlo ha re
112_0583 ho bata horeo yentle le
112_0584 a di pata matlwaneng a
112_0586 qwaile ka ha a ka
112_0587 wa poulelo le wa ho
112_0588 le tshebediso ya matshwao a
112_0589 jwetswa o bonwa ka dikgapha
112_0590 ya dikantoro office administration ka
112_0595 o qollehang o ka thehwa
112_0596 adv johnny de lange ke
112_0597 ye ba itokisetse ho ya
112_0599 a theohang fora thae le
112_0600 ya ho thaotha le ho
112_0602 se sebetswe ka le ho
112_0603 eo o e kolotwang ho
112_0605 ke kodua ya masetladibete ee
112_0608 nthakemo eo re buileng ka
112_0610 ka o fasebaka ho dumedisa
112_0611 ditjaka a sa jese thweetsana
112_0613 leihlo le fahlwa le shebile
112_0614 susumeditse borakgwebo ho bula dimmotjhara
112_0616 kahisano a ka ba le
112_0617 ha di eme di botse
112_0618 ho ya di fa bomabalane
112_0619 mose wane ho meedi ya
112_0621 re ka ha o ne
112_0623 million metric tons
112_0626 le le ka marung ke
112_0630 hella nehelanong di sebe disitswe
112_0632 ha o re o ahlamisa
112_0634 e mong le e mong
112_0637 ho be le lesoba lebitleng
112_0638 million years old
112_0640 ho ke ke h a
112_0641 itshwarisa be ke ikwalle ho
112_0643 romellwa melaetsa e mo hlekefetsang
112_0645 thotwana ho ngala ho thoba
112_0647 e lokelwang ho tshohlwa ke
112_0651 ha o no tlohelwa ho
112_0652 maipato e ne e le
112_0654 horizontal gene transfer
112_0659 ha re re re qhwaolla
112_0660 mario kart
112_0662 ho rora ha helikopotara e
112_0666 ne e kenyelleditswe ho ba
112_0670 idimola kgafetsakgafetsa e le mopoto
112_0672 formal diplomatic relations
112_0673 carnegie mellon university
112_0679 a re o ikgutlisetsa o
112_0681 ba bamemuwa makhing wa bahlomphehi
112_0682 se kgethollang makasineng se bolele
112_0683 ya ho tshwasa dihlapi o
112_0689 monga mobu a ka ya
112_0691 primitive recursive functions
112_0692 early iron age
112_0693 di springbok ka ho ba
112_0694 e ne e le seqhenqha
112_0699 o se a e kgwathile
112_0701 ba se ba saletsweke dikgwedi
112_0708 fundamental physics concepts
112_0709 ho oo ho fellwang ho
112_0710 ho totobatsa ditso le dikamano
112_0712 mahlale le theknoloji ho ka
112_0713 ho ya ka tjhebo ya
112_0715 operation iraqi freedom
112_0719 ka lengope kgidi ya boi
112_0721 re sejana se setle ha
112_0722 jewish american writers
112_0724 ka eo le re qhoshetsang
112_0726 ba ke ba ba ithaopela
112_0727 ne re ya ka nnqeng
112_0730 a tsweretse mahlo ao bofubedu
112_0732 ya pdf ya phr e
112_0733 o ne o se yo
112_0734 narrow gauge lines
112_0738 a thekeselang a moruo wa
113_0002 human rights activists
113_0006 se ke wa tshaba ho
113_0012 ho thujwa ho ba dikotwana
113_0014 soma ho mo qosa le
113_0019 tsabosetjhaba le ysa profense di
113_0021 valence bond theory
113_0023 poello ha o beeleditse ho
113_0028 o hanana le ho re
113_0034 la ho potlaka ho ka
113_0036 ke bosotho nthwese kola sa
113_0046 castel sant angelo
113_0054 ba matriki di se di
113_0056 ho ba moruti wa kereke
113_0060 qotsitswe le ho lokiswa ho
113_0066 medieval islamic world
113_0073 e tswang ho nac ho
113_0090 chinese new year
113_0096 ba hatellwe ka ho tingwa
113_0097 ya mosuwehlooho ho ya utlwahantle
113_0101 dipale le ha e le
113_0103 mo rokang a be a
113_0110 le bojuta le bokreste re
113_0114 different ethnic groups
113_0119 roka le ke motjheso walehlabula
113_0126 a ke o re phetele
113_0127 di ne di sa rerwa
113_0129 ba ath party
113_0131 british prime minister
113_0135 world health organization
113_0136 green coffee beans
113_0137 ho na le ho honyane
113_0140 theoha koloing ya baeti seteishening
113_0141 ho kgabisamola oo ka ho
113_0145 world s largest
113_0147 ha e le ho ya
113_0149 dihlongwapele mantsweng ao o a
113_0153 mosotho o ye a re
113_0155 ha o ka kgethelwa ho
113_0160 ya diahi ho nhbrc le
113_0169 re ho a be ho
113_0175 ke re ho ye ho
113_0176 re lehola ha le jalwe
113_0179 ya basotho ho ne ho
113_0183 studies and journalism ekasitana le
113_0184 di entswe ho na di
113_0190 le maqhubu a radieishene sepakapakeng
113_0191 later middle ages
113_0193 shebe e be o seha
113_0195 lemang di a tjheha di
113_0204 verifiable source proving
113_0205 parliamentary representative democratic
113_0213 ka mahlong motsotso o molelele
113_0219 hehehe ho re ho na
113_0226 ho hlometswe ho tlatlaptjwa ha
113_0234 ha sheri a dumetse ho
113_0238 ne o ka mo qenehela
113_0244 united states government
113_0247 ho division liquor products stellenbosch
113_0254 holy roman empire
113_0260 mofelehetse ka ho re ha
113_0261 ho moedi wa bofutsana le
113_0266 natural number n
113_0271 best original screenplay
113_0274 le thulano ya dikgahleho ka
113_0280 ho se tshwanelwe ke ho
113_0287 ho se mo sune ha
113_0288 di buisane le fhr ka
113_0290 verify credibility dater
113_0291 e le diritsa ba kgaohile
113_0297 dubious date march
113_0301 ba sebedisang matsoho ho buwa
113_0302 e ka ha ho a
113_0308 army air corps
113_0313 le ntshiuwa ba se ba
113_0321 continental united states
113_0322 blood pressure hypertension le asthma
113_0328 game boy advance
113_0335 o a ntjodietsa ha ke
113_0336 se di sutelwa ka mokotleng
113_0343 a ithaburanya ka ha a
113_0345 free market economy
113_0346 hlileng e o hwayahwayang ha
113_0354 phokojwe ha e tshela moedi
113_0356 sa balang le ha ho
113_0358 vasco da gama
113_0362 gauteng kamora leeto la balfour
113_0368 amohelwe ke registration committee of
113_0369 ho bokellwa le ho hlophollwa
113_0377 ke hierarchy of needs ya
113_0378 l cuin abbr
113_0379 san francisco bay
113_0383 ne a se a tletse
113_0385 ke tshohe moru o se
113_0388 ho latele tumediso monghadi e
113_0390 lejwe hono ha ho mo
113_0401 british science fiction
113_0402 a re hela kgudu e
113_0403 a be a itsamaele ho
113_0408 middle east peace
113_0421 le ha di ngotswe di
113_0429 le dumme ha ho be
113_0430 prime minister margaret
113_0434 ha ho lefuwe ha ho
113_0446 tetse ka kgopolo ya ho
113_0447 royal swedish academy
113_0452 ha re tu ka ho
113_0457 lesweu mehoo ya dithotsela lemoya
113_0458 leshodu ke le tshwerweng ha
113_0462 national public radio
113_0463 ho qekwa le ha ho
113_0465 ho ya ka supina ho
113_0467 e ne e leboloi boontatae
113_0468 including population density
113_0472 ejamethinya o ne a sa
113_0479 pope innocent
113_0481 federal reserve bank
113_0486 american jewish people
113_0495 ya ho bopa le ho
113_0497 e ananetsweng e na le
113_0498 needed date august
113_0499 social democratic party
113_0500 hakana ke o jarela mankokwana
113_0507 ka be a sa hlahelwa
113_0508 menngweng ka boithaopo ho etella
113_0513 ya monyemo yafapanyang dikgarebe le
113_0515 bokudi ka ho fapafapana matoto
113_0516 free software foundation
113_0519 ho division liquor product stellenbosch
113_0522 ao ke a utlwang ka
113_0530 ho mawatle o o hloloheletswe
113_0532 leka ho o hlaba malotsana
113_0535 rejise tara le sephetho di
113_0544 sa le e qheletswe ka
113_0545 ne e se ho re
113_0554 universal postal union
113_0557 kgetho ya mantswe e bontshang
113_0562 le ka rarollang tshubuhlellano e
113_0566 maqaqailana melamu ya ho ikokotlela
113_0570 swabile nko ho feta molomo
113_0574 leonardo da vinci
113_0575 bo ha ke no kgutlela
113_0576 ha e nkwe e le
113_0580 nfl championship game
113_0581 ka itahlelang lemeneng la ditau
113_0585 babedi bao re ka iteanyang
113_0587 ya leon ho ne ho
113_0588 ft m long
113_0592 mean value theorem
113_0599 ha ho na le tefelo
113_0603 digital signal processing
113_0606 le e qhwaelwang sefubeng kgau
113_0607 ha o a dumellwa ho
113_0616 pedi borarong ya mebuso eo
113_0618 di ka nyoloha ha e
113_0619 sekametseng ho tshabiseng ka ho
114_0001 le di arv di ka
114_0005 se o le pshasha ho
114_0008 ka motswetseng ho sa hlonngwe
114_0019 be le tshwano ha ho
114_0024 ho hiruwa ha ka potefoliong
114_0027 american film producers
114_0029 ba tshedisehe o na le
114_0032 le eo e hlonngweng ke
114_0034 se o ngodisitse ha ho
114_0036 ne ba sa di fumantshwe
114_0038 ho fepa le ho nwesa
114_0039 ne e le mpho ya
114_0041 o romelang baromuwa sebokeng o
114_0047 ba lefitori ha se bonwe
114_0049 ha re ka ra bo
114_0055 a mebileng ha di bolawe
114_0057 di a mengwa ho thonya
114_0058 ke hora ya bohlano thapama
114_0061 ya ho tiisetsa ditshaeno le
114_0062 diselefounu di ka utsuwa ho
114_0065 dilomo meru e kopaneng diphulana
114_0079 mo qhoqhang ho intlafatsa ho
114_0080 bo hlollang ha fihlamotsotso wa
114_0081 e kenngwang dikotikoting e pakwang
114_0082 ka ho toba akhaonteng ya
114_0085 ya be e re elellisitswe
114_0086 mareo le mererong ya diprojekte
114_0088 lebile botsitsong le katlehong kgatelopele
114_0089 le ne le se le
114_0092 hlwatswa sebae ka letoto la
114_0094 ananelwang le ho tlotlwa dibakeng
114_0096 ha a na ho ka
114_0097 h tswala tjheleteng ya tsetetsweng
114_0099 ya kgohlong ka ha e
114_0103 a sa o tlwaelang ho
114_0106 lora a haola meruemetala ya
114_0107 la jse le ho rekisetsa
114_0109 bele o se ke wa
114_0111 dumelle le be le ele
114_0112 ha di silafatswe ke ditshintshi
114_0117 prince edward island
114_0126 di ne di ponngwe ka
114_0129 ho na le ho kgaokg
114_0132 fapaneng le ho ya ka
114_0138 skweyiya jj ba dumellaneng le
114_0142 kgeswa le ho bitswa mabitsobitso
114_0145 na re ne re itshwenyetsang
114_0148 le nna ke le tjena
114_0153 o kgothetse ho na le
114_0154 o re re qhelele moketjana
114_0157 re itlamme ka boithaopi ho
114_0158 a se a neheletsa leqosa
114_0159 eo ke ikemiseditseng ho shwa
114_0167 multi purpose community centres ke
114_0171 eo o sa tshwanelang ho
114_0173 tj hata ya tshe beletso
114_0175 e ke e mo phekole
114_0176 e netwekeng ke mohokahanyi wa
114_0177 ka ekaba ho se ho
114_0178 shejulu e phatlaladitsweng koranteng ya
114_0179 ha ho sa na le
114_0180 ya sethethefatsi tjhefu ya khemikhale
114_0181 o phuthile le mehaswana ya
114_0184 ho sa na le ho
114_0190 le beile pelonghakana a ba
114_0193 sekgopi o ka tshepela ho
114_0194 ho kenyelletswa le la keresemese
114_0202 le mtshwao a tshupo a
114_0207 a tshabehang a lefifi ho
114_0208 itlama ho se behe saps
114_0210 felehetsa ho kgutleha hlakoreng la
114_0215 bapalami a sa ba fe
114_0216 e re nengneng a eme
114_0218 ba bangata kamoo ho ka
114_0221 e lethwethwe o elellwise mokomishenara
114_0223 le ka madungwadungwana ho ya
114_0225 e sa le e qheletswe
114_0228 eo ho buuwang ka yena
114_0230 le maqheku a lenyalong ba
114_0232 re ye re sitele jehova
114_0234 sa ho vouta sedikeng sa
114_0245 e ne e le nthho
114_0246 e le o rarahaneng ho
114_0247 bodileng matshwele a sollang a
114_0248 a di utlwisisang le ho
114_0249 le kutlwisisano dihlotshwaneng ke se
114_0250 o se o mo ja
114_0252 dikhampaning dikoporasing le baleming ba
114_0258 ba makatsa ka ha ba
114_0259 ha a sa e fuwe
114_0260 na ba se ba thusitswe
114_0261 ha eo a se a
114_0262 re re re qhwaolla kobo
114_0264 obitjhuari ka ha le ne
114_0266 hatabatsabatho ke ha a le
114_0267 mohlomi o ne a ithatela
114_0269 mafellong a mesifa di ba
114_0276 ho re ho se be
114_0279 a butswelana ka tholwana le
114_0286 million years ago
114_0289 re re ye wits ka
114_0290 ho registrar of animal improvement
114_0291 ka ke sa tsilatsile le
114_0292 ho ne ho se ho
114_0293 ba sireleditswe tlhekefetsong le tlontlollong
114_0294 o e na le sehatsetsi
114_0295 di fumanehe khomputeng ikopanye le
114_0297 be o iphasa ka lerapo
114_0298 le ho phomosetsa bamemuwa ba
114_0299 makuleke kruger national park dinaheng
114_0301 ka letlotlo le siilweng ke
114_0304 kgolong ya ka le tshiung
114_0305 motsotswana ha e le difelekwane
114_0306 west african states
114_0307 uke ichi ni san ji
114_0309 ha e le ee dihora
114_0313 mokuru o se o sibile
114_0316 original game boy
114_0317 ha ba hlomphe mosuwe ya
114_0318 a tsweretse sa tweba e
114_0321 on financial awards pfa dinnete
114_0322 ke ke ha o tswela
114_0326 ha e be ke ee
114_0327 ho se qose ha se
114_0328 ha ho ne ho sa
114_0334 tekanyetso e tswellang ke lewa
114_0335 ha ho na pilisi enjekeshene
114_0337 palestine liberation organization
114_0342 di batlisiswe le ho salwa
114_0343 poraevete k h r ba
114_0344 ya bcm le ho hlaisa
114_0345 services development plan wsdp e
114_0348 ka ho re tselatshweu matebele
114_0350 dikoloing ho ya ka ho
114_0352 thonya bonkgetheng ba loketseng ho
114_0355 ho okamelwa ke ditlelereke phethahatsong
114_0356 ba ne ba ye ba
114_0357 hlwauweng ka ho ya ka
114_0358 ho ka tsoselletsa mofuthu wa
114_0359 ba ne ba na le
114_0360 paris peace conference
114_0361 mo sehollake a motsholele maqa
114_0362 dipotongwane ho re tshiu di
114_0363 ha ke na le tletlebo
114_0364 ba ka a ka tshababeatrice
114_0365 dumedise ka ho re dumelang
114_0366 le e atlehileng ho fihlellwa
114_0367 articles containing video
114_0369 setshwantsho se se hlalosang neha
114_0371 batshosi ba tsohellang masimong esale
114_0372 o ne a tshepetse ho
114_0374 sefifi sa phoofolo e shweleng
114_0375 e qotsitswe le ho lokisetswa
114_0376 di ne di hatelletswe ka
114_0377 cola le ditjhokolete di na
114_0378 o bue o ke o
114_0384 european economic area
114_0387 atomic energy agency
114_0389 major league record
114_0390 tshositse ka ho o bolaya
114_0393 e thehilweng ho nyehelo ho
114_0395 ke ne ke le e
114_0399 bo se bo le ho
114_0400 le hodiswa le ke dillo
114_0401 o tlohelle ho tjha ntshi
114_0404 ne ke re o mo
114_0406 cape breton island
114_0410 e bapalwang ke motshireletsi wa
114_0411 ba thontsweng ke sacnasp professional
114_0412 minister margaret thatcher
114_0414 mashaeng empaha ho a ka
114_0415 bo bong le bo bong
114_0418 sa tlhatlhobo le f ho
114_0420 le ke na le toro
114_0422 phethisa tshepiso ya ka ke
114_0423 di fihlile mohwang e sa
114_0424 tsatsi le tjhabang le le
114_0426 states army air
114_0428 ho ya dihela dikgala sware
114_0430 ha a hele a itlamele
114_0432 le sekgobo ho qhellwa ka
114_0433 eo na o ne o
114_0434 ya ho hira ikopanyeng le
114_0435 ya mmampodi kgwaolla ditswakotleng jm
114_0436 south west england
114_0437 helang le ho hlophisetsa pan
114_0440 ho kopanela tekenoloji phetisetso ya
114_0442 o patisaneng wa phumano ya
114_0445 le vii ho diswa ho
114_0446 ya eommae e be e
114_0447 e le ba moradi wa
114_0448 le behetsweng ho ba la
114_0452 bronze star medal
114_0453 hlokahallwa ke eo o mo
114_0455 roman catholic monarchs
114_0458 fact date december
114_0459 toustu bisekiti le raske dinong
114_0460 ditaba maikemisetso maemo le sebopeho
114_0463 qetella e le diqhwala ka
114_0465 sehlooho se sekasekwa le ho
114_0466 ne a sa mathe o
114_0468 ho ya moketeng e ne
114_0479 matsapa a ho ntshampa eo
114_0481 ba a re nyatsa ha
114_0483 ke ya html le ha
114_0485 a botona marong a ntshuwang
114_0491 ho na le qhoku e
114_0492 a lomolwe ka lelomolo la
114_0493 o se ke wa senya
114_0495 canadian prime minister
114_0498 ho ya ka molaotheo wa
114_0500 makopanyi maemedi le mahlalosi ho
114_0501 ho hlwekise khotone le h
114_0502 ka morero wa ho matlafatsa
114_0504 ho itsebahatsa le ho utlwahatsa
114_0505 ho ya hlwekisa le ha
114_0506 leruo le utswitsweng jj le
114_0507 ke ya di heleng ho
114_0509 a sa kgotsofatse tleleime ya
114_0510 south china sea
114_0513 a rabaraba v o ipotsaka
114_0516 le matheriale oo mohiruwa a
114_0518 ba ka iketsetsa meusiamo wa
114_0523 e shweleng e ne e
114_0524 aithunya ho ne ho sa
114_0529 on o hlomphehileng ha kana
114_0530 wa bonaha re se re
114_0533 wa lefi ho ya ka
114_0534 qale ho ebesela a ntjhafale
114_0540 ha ho na ntwa e
114_0542 ha o ka wa e
114_0545 eo o e belaelang ho
114_0547 supa matstasi a ho qala
114_0548 di iketlile di ja lekomo
114_0549 la ka ke dudu re
114_0550 market prices estimated
114_0552 ha mothendari a ka phumola
114_0553 mopeleto le tshebe diso e
114_0555 ke re llang le bokolleng
114_0557 major professional sports
114_0561 united nations standard minimum rules
114_0562 ho be le nyalano ha
114_0563 se ritetsweng ka oli ya
114_0564 o kgothaletse kamohelano ho ya
114_0566 states environmental protection
114_0567 cold war era
114_0569 los angeles county
114_0570 ne a ye a kgonye
114_0571 ba se ikutlwe ba phahametse
114_0575 ka ho phahamela ho hlwibila
114_0576 a se a sa ye
114_0577 ne a rwetse masale a
114_0578 ho re bajwalo ke ba
114_0579 swiss german dialects
114_0580 ditho ya inthanete member online
114_0583 ho thehilwe ho arolwa ha
114_0586 cell lung carcinoma
114_0587 ya sedulwamatswapong ha ho le
114_0588 british army personnel
114_0589 nuclear magnetic resonance
114_0590 eo ke e shebileng ka
114_0591 ya ka ya ba ya
114_0592 ha e nnqwe e tshetse
114_0597 ha ho hlokeha ho batho
114_0598 tene senna itahleleng le lwe
114_0599 abelwa ha a ne a
114_0602 ke foko mmetso ke pataolo
114_0603 boiteko bo etswang ba ho
114_0605 second polish republic
114_0606 ha e le mo ba
114_0607 cannes film festival
114_0609 o fetisetsapelebakengsatsatlhahlobisoyammele patholoji thekenolojiyabongaka le
114_0610 kola sa lebollo tlotlo elebiswangdiketsong
114_0611 ya bohlophisi ya ho foreima
114_0612 kgahlano le ho qhelelwa ka
114_0613 se le sa nkge leseporo
114_0615 ya sekiri sa ho hama
114_0616 le mohlang le o kgamang
114_0618 ha eo a sa hutse
114_0622 narrative a re qoqela ka
114_0625 ka iphumana ke se ke
114_0628 ne o sa e tshohle
114_0630 red hot chili
114_0632 ha ho ne ho phelwa
114_0633 eo ha ho se ho
114_0634 ho foka o mosesane o
114_0636 senyesemaneng le afrikanseng ha ho
114_0641 di popcorn di ka kgathatsa
114_0642 flagship radio station
114_0643 mmuele le ha a ne
114_0646 ba be le lekeno la
114_0647 o entseng se sekaale ha
114_0648 kansas state university
114_0649 a ka tshireletswa ke paja
114_0650 ke mathela ho sylvester eo
114_0652 ka mahlokwa a fohlilweng makgapetla
114_0653 motsana wa menkgwaneng o qetse
114_0654 mohwebi mohlahisi mopotlakisi le mofetodi
114_0655 o se a hlalositse ho
114_0656 le sa duletseng boshof re
114_0657 o mpontshitse ha e le
114_0659 mefuta le dibopeho tsa dipolelo
114_0661 hlapanyeditsweng e tiisang boitshetleho ba
114_0662 european central bank
114_0663 ba wa kitikiti kitikiti kitikiti
114_0664 boela o o bale hape
114_0665 titjhere masitha o ne a
114_0666 national basketball association
114_0667 di tsamaise di di laole
114_0668 ao ke qetang ho o
114_0669 ka morao ho ditherisano le
114_0670 a tshwaye karabo ya pele
114_0671 population growth rate
114_0672 nkatana ho ikgona ho kgora
114_0673 ya mmino ya medumo ya
114_0674 e fanweng di a fumaneha
114_0675 bo be bo mo timelle
114_0676 a diha kahlolo kahlolo eo
114_0677 ha ba itokisetsa ho ya
114_0679 eo ha ho ka kgoneha
114_0681 di ka bolokelwa phomosetso ya
114_0683 o phethelwa ho o hlahlamang
114_0684 dibakisotabeng ya pokola a be
114_0685 ba ho o aba o
114_0686 o kgutlile a se a
114_0687 a rwetse masale a fubedu
114_0688 dintho ka lehlakore le le
114_0692 e ahlolwe e be ka
114_0693 ke wa bonaha re se
114_0694 ba le kgutso ka ha
114_0696 tleloupung le mmapeng wa atlelase
114_0697 second continental congress
114_0698 ba le pate ha ba
114_0700 le holane lebelo re sa
114_0702 ne e le ka phirimana
114_0703 la porovense la kgauteng ke
114_0704 omosweu o se o thuntse
114_0705 ne e le makaroff nthwe
114_0706 di sa fahlwa a kokosile
114_0707 sekgahla se kahodimo ho sa
114_0708 le ha e le ho
114_0710 re a be re sa
114_0711 etswe o se o le
114_0712 kgarafu ya sekopo ho raohile
114_0713 ba dikalaneng ba mo tsebileng
114_0714 ya leshoma o nkomela ka
115_0002 lossless data compression
115_0007 ha ke re o a
115_0010 founung botoloki ba founu bo
115_0021 ho nnetefatsa lekunutu la molli
115_0024 ho etela tulo eo ho
115_0029 qatile mohatla kobo di fokaela
115_0033 gold medal recipients
115_0034 numeric character references
115_0037 se le re rao le
115_0038 eleng pharela le ha ho
115_0044 warring states period
115_0052 a phakisa ho o nyahlatsa
115_0055 ha ho bonahale e le
115_0056 lebitla ee ho ne ho
115_0058 national football league
115_0059 le ya ho ya ho
115_0067 ha ho a loka ha
115_0069 ralehlatsa o ne a tahilwe
115_0071 o se ke wa ya
115_0072 american film institute
115_0073 charles sanders peirce
115_0074 ho utsuwa mabenkeleng a ka
115_0076 ho qoswa ha mokhomishenara wa
115_0077 president lyndon b
115_0082 ao aneng a ka ba
115_0084 wa sejapane ho ne ho
115_0085 los angeles times
115_0089 international criminal tribunal
115_0101 hello world program
115_0111 kgoho e tshwerwe ke mokoeyo
115_0113 makubetso le ho ja ho
115_0124 occupied cypriot area
115_0125 digital equipment corporation
115_0126 iran iraq war
115_0128 ha ho le hongata ho
115_0130 le e governance e learning
115_0131 bo sa amoheleheng le ho
115_0135 o hlekefetswa ka ho shatjwa
115_0140 ba ka susumetswa ho ya
115_0141 high school alumni
115_0145 mo tlatsela ha e le
115_0149 national football team
115_0153 ho re ha e le
115_0156 ka ho o tjodietsa ka
115_0158 ba monyetleng wa ho hahlamelwa
115_0159 jwala o mmitsa kgowanatshwana lejakane
115_0163 battery park city
115_0164 hamorao ho ye ho etsahale
115_0168 a ya ha malomae ho
115_0172 gravitational potential energy
115_0180 late twentieth centuryodowska curie
115_0188 states district court
115_0189 united states house
115_0194 le ha ho se ho
115_0197 box office success
115_0202 united states supreme
115_0208 na le matla a ho
115_0209 ke tjhefo e kwaeng e
115_0213 ya bokenadipakeng ya tonakgolo e
115_0215 president franklin
115_0217 e sa nepahalang e sefuwe
115_0220 ha di sa le setlwaeding
115_0225 le sa le letjha ho
115_0230 greenhouse gas emissions
115_0231 yom kippur war
115_0232 ne o kopile koranta ho
115_0233 states coast guard
115_0235 clarify date january
115_0243 ie seoa se unang ho
115_0256 ke ne ke safufulelwa ho
115_0260 billion years ago
115_0271 supa ku tlwisiso e kgabane
115_0276 o ne a pudukane ho
115_0278 air traffic control
115_0280 apesa ho kupetswe bofeela ba
115_0283 ke sehwai sehwai se kgothetsa
115_0287 procedural programming languages
115_0291 ne bangongoreha meyeng ha ba
115_0293 ho na le phokotseho e
115_0302 hlokahalang le matsapa a ho
115_0306 lefshwang ka tlaase le baithaopi
115_0307 football clubs established
115_0309 natural gas reserves
115_0310 c ho ngangisana le ho
115_0314 ka ho ngolla moromowa ho
115_0317 o na le kgohedi e
115_0328 na ho sehwajwang ho rokwa
115_0332 ho tsamaisana ka ho lekanale
115_0333 ya ho fa bangga ba
115_0335 sports clubs established
115_0337 ho be le phumantsho e
115_0338 boahisani le european union maelana
115_0340 ya ho ba mahlabeng ha
115_0341 se ba kopanyang ba kopangwa
115_0346 world heritage site
115_0354 ka phaposing ya ho phomola
115_0355 citation needed april
115_0361 human rights violations
115_0364 ho na le kgathatseho ka
115_0367 makubetse e ne e le
115_0372 containing video clips
115_0373 a post graduate di institjhusheneng
115_0374 methodist episcopal church
115_0378 manufacturer for agoa particulars di
115_0380 institushene e tshepuweng ka ho
115_0381 ke ke ha eba bonolo
115_0382 tu ha ho sa na
115_0386 kuruetswa ke ho re a
115_0388 eyes wide shut
115_0389 high seas fleet
115_0390 le bitleng la mmaletrato le
115_0394 ke utlwile bothabiso ba re
115_0398 free software programmed
115_0400 la ho se utlwane ka
115_0404 round table le rotary le
115_0407 ka ho qolleha ba kopanye
115_0411 oo ho ona mongodi a
115_0415 wa mooki tliliniking e ka
115_0427 ya mo fenetha ha ba
115_0432 e kgotjwa e le maoto
115_0437 tshenyeho ya mesifa mascular dystrophy
115_0441 summer olympic games
115_0442 sa sebetseng mmba be ba
115_0447 african development bank
115_0449 a se a swentse ka
115_0450 hugo award winning
115_0455 thehileng matleng le mananeong a
115_0458 le ha hone ho le
115_0463 ba intshang sehlabelo ka ho
115_0465 tshwenyehile o se ke wa
115_0466 la dikgokahano ba in communications
115_0468 following demographic statistics
115_0472 amateur radio operators
115_0475 sa mo re shwato nkong
115_0476 human rights abuses
115_0477 nafvsa e na le phaposi
115_0481 sa qeaqee le ho qeaqea
115_0482 international auxiliary language
115_0483 ba ba le kgaoho ya
115_0485 congressional gold medal
115_0486 atomic energy commission
115_0490 ne ba ye ba re
115_0492 aung san suu
115_0499 irish republican army
115_0503 re e ka mo loma
115_0506 hlotjhwa ha ba di shebelletse
115_0509 ho se ho ho le
115_0514 roman catholic bishops
115_0517 e lelefalang le ho kgutsufala
115_0529 ho re ho se ho
115_0530 e re pududu a sa
115_0534 le ho tshehetsana le ho
115_0535 le ja podi ho fetafeta
115_0536 le ho se sebedisane le
115_0539 e se e ie dibeke
115_0542 samuel taylor coleridge
115_0546 wa ket sahalo ya ho
115_0554 e ka ba le makukuno
115_0557 o ka tlasenyana koporo ho
115_0558 maru a matsho a fifetseng
115_0560 re ba memmeng ka ho
115_0569 ya vat vendor search ke
115_0586 e le ba ahetseng tjhankaneng
115_0588 a re itjhuu itjhuu itjhuu
115_0594 seporo le dikou le ho
115_0595 sheshe le ha e le
115_0598 meraro ya ho hweba ka
115_0600 royal australian air
115_0607 music awards winners
115_0625 renkeng ya baragwanath barekisi ba
115_0631 e se e hlwahlwa hakaalo
115_0633 kotjwa ke motshwaruwa ka ho
115_0639 american musical theatre
116_0002 sa benkeleng la ditshepe le
116_0003 npos le ha ho le
116_0005 ho phumula le ho bentsha
116_0007 e lokelaho ntlisetsa ngwetsi le
116_0008 o ie thabong o a
116_0009 social democratic parties
116_0011 ha ho tshwanelehile o ka
116_0013 ho teko ho o tl
116_0018 van der waals
116_0022 ha o le mokapotene wa
116_0024 ya mo sikarong le ho
116_0026 ya ho kgethammabotle wa mautse
116_0030 community based natural resource management
116_0032 second vatican council
116_0033 ke toro eo ke ikemiseditseng
116_0034 orange free state
116_0036 pheleu v o ne a
116_0038 eo ho ka kgelohwang ho
116_0040 ha o se o ingodisitse
116_0042 british royal navy
116_0045 di phahamiswe le ho ntshetswa
116_0046 e ka letlwepe la masumuathebotsho
116_0047 se na le sehlotshwana kappa
116_0049 bo weso ka ho ja
116_0050 e se bolokehe bahahlaodi bamose
116_0052 second boer war
116_0053 a se ke a kgethollwa
116_0054 o bontsha bopaki ba setaele
116_0055 ne di mathile mantswenga hlahlalebajwadi
116_0056 ya mmuni ya ho bokelletsa
116_0057 le ditlontlollo re ka phelahamonate
116_0062 poere ya kheri matswai a
116_0067 e potlakileng ya tlokotsi ho
116_0068 king james version
116_0074 eo ba e jeleng ao
116_0076 hakala sa mo qhautsa ka
116_0077 ba ratang papadi ya bolo
116_0078 ha a ne a hlolwa
116_0080 following table shows
116_0082 boston red sox
116_0084 ya dikhampani e nkilweng ke
116_0085 eo ya diflete le c
116_0086 ha ho se ho ngangisanwe
116_0087 ka a tadimang e le
116_0088 o ke ke wa tshwengwa
116_0091 ke re re le bolelletse
116_0092 ba mo tsebileng e le
116_0094 ho ya ka tshisinyo ho
116_0095 fetolela ho e na le
116_0096 coptic orthodox church
116_0097 e be e be mohlankanyana
116_0100 ke di phehileng ha a
116_0101 bo a raroloha ho fihlwa
116_0102 o mosweu le botala ha
116_0105 metsebetsi o ne o ka
116_0107 tayo ho ya ka melaotheo
116_0108 o ja poqo ka hlanaka
116_0110 o ne a jelwe ke
116_0111 o ne a tlohile matatilele
116_0112 b na o ne o
116_0113 ne ke thothomela ke tshohile
116_0116 ho se ho fetile beke
116_0118 le dierekisi cauliflower le broccoli
116_0119 ntlheng ya makgotla a ketsamolao
116_0123 ka ha ho lebeletswe ho
116_0125 ho thwenge atile le ho
116_0130 ka bolwetse bo sa foleng
116_0131 e le e qabolang e
116_0134 ka thuswang ho ka fihlella
116_0136 o ie ditsietsing o ie
116_0137 ya akademiki ya learnership ka
116_0141 le kgotsofalo ya mosebeletsuwa le
116_0144 a jelle kgwebeleng le ho
116_0147 se e hlomamisitse di nlb
116_0154 unesco world heritage
116_0156 utlwe ntlhakemo ya ka tabeng
116_0158 bosemorafe le sa kgetholleng ka
116_0159 middle high german
116_0161 bolela haebe o kile wa
116_0163 ke ho ikwetlisa le ho
116_0164 di a bulelwa le ho
116_0166 o ne a ikgabisa ka
116_0169 ha o nthate o mpa
116_0170 ho diphaka ho dihlathe difubeng
116_0171 united states national
116_0176 e ya nahanelwa leanong la
116_0177 erekaha a ne a sa
116_0178 nebula award winning
116_0180 mies van der
116_0182 h o amana le e
116_0183 motsaneng wa menkgwaneng ho se
116_0184 supang qotso di a bulwa
116_0187 ya makgiseterata ya kagisohape le
116_0188 ke ke wa ba tshwantsha
116_0189 ee o ka re mopheti
116_0192 apartheid ha ba a ka
116_0193 ho ba thodisa se itsheleng
116_0194 british north america
116_0195 o tennwe ke boitshepi ba
116_0196 makwalata e ka fodiswa haholoholo
116_0198 ne o ntshepisa mahodimo le
116_0200 ho sebeditsweng lehlaso o be
116_0202 tjhakatsa ka mahahapa ke motsofehadi
116_0203 le ba sa ingodisetseng dikgetho
116_0206 ba ne ba falliswa ka
116_0208 lohothwang serapeng sa a a
116_0210 a khompeuta a word processing
116_0211 ho ya ka ho kalwa
116_0212 ke ha ho tjhang ho
116_0214 ba meharo le ho ikgohomosa
116_0215 ha ke a ikemisetsa ho
116_0218 bonakganyapa a se a le
116_0221 ke e kgahlehang tjhabeng se
116_0222 eo a mo fileng matlaya
116_0223 ka ho sotlwa ka ho
116_0225 pope urban
116_0228 ke lehlanya a se ke
116_0229 ya emellwang ka sepolo ho
116_0231 ba ya ba re if
116_0232 seterekeng sa great lakes re
116_0234 ne o nahanneng ha o
116_0237 lefiswang le ha ho le
116_0238 ya manyesemane le phehisano ya
116_0239 ye a re ha ho
116_0242 di ka mpefatsa letshollo la
116_0244 buella setlokotsebe see sa moshanyana
116_0245 phamola ditsuonyana a sa mmotse
116_0246 ho se tsejiswe lebiso la
116_0248 binary search tree
116_0249 prime minister tony
116_0251 african unity oau
116_0252 ba hwebang ka mebele ba
116_0253 o sa ye secunda o
116_0257 ba kgohlanong lemolao ba tobaneng
116_0261 o le makaqabetsing ha ho
116_0262 re di lwanetseng ka ho
116_0263 lebelletse moreki le mofepedi ya
116_0264 khampaneng ee o ne o
116_0265 lekgolo re nyalane ho salang
116_0266 sehlahiswa se phe thetsweng se
116_0271 ya ka mehla le tlhahiso
116_0272 eo ke mo tsebang ke
116_0275 molefi o ke o mphe
116_0280 jewish theological seminary
116_0284 ya mmabotle le rabotle ba
116_0289 ho ya ka molao wa
116_0291 a welang lekaleng le le
116_0296 ya hlabehang a hlabehe eitse
116_0299 e na le ho ja
116_0301 mohobelo a b kgoro ke
116_0302 ke ba tshebeletso ya databeise
116_0303 a ho ba bothateng bo
116_0304 ha a itlhompholle ka ho
116_0306 sa roleleyathunya o ne o
116_0308 e ne e kenyelleditswe ho
116_0309 sa rutehangbafola difemeng ba rutehilengba
116_0310 o phaphame ha o le
116_0311 melbourne football club
116_0312 botoloking ho leksikhokrafi le mareong
116_0313 o molokoloko ha ho diratswana
116_0316 o motsumi wa meya ya
116_0318 shwalane e se e tshwere
116_0319 ba le pherekano eo ho
116_0321 motjodi o tono se sephatswa
116_0322 e fosahetseng e na le
116_0324 le ne le hanella mmetsong
116_0325 short story writers
116_0329 o imme ya nyarosa kgwapo
116_0330 lifetime achievement award
116_0333 ba ramautla ba re etsisang
116_0336 tlatsa dikgeo ka mahokedi a
116_0337 ka hlahlobong o a thalatsa
116_0338 northern mariana islands
116_0341 ne e le phephetso e
116_0342 saint john river
116_0343 a amohetseng a re thusitse
116_0344 ditsela le ditlwaelo ho ya
116_0345 mmatoko o ne a se
116_0346 ya ba lai lai thu
116_0347 traditional chinese medicine
116_0349 baithaopi le ba sebeletswang ke
116_0351 american film directors
116_0353 se ke la ntlhobaetsa ke
116_0354 ba ne ba le pelotelele
116_0355 bo be bo le ka
116_0356 states national film
116_0359 re iqeke emoholo esere ra
116_0360 palo eo o e kopang
116_0361 international phonetic alphabet
116_0362 ba phetelana ditshomo ho itlosa
116_0363 ya boshodu ho tjhwatlwa ha
116_0364 european economic community
116_0365 ba ba tshwasehe kutlwisisong e
116_0366 e otlolohileng le ha e
116_0368 mamela ka tshetshefo ka sepheo
116_0371 ba lekganyane ho sa le
116_0372 le ha ho le jwalo
116_0375 ka mokotlaneng wa baki a
116_0376 matshwenyeho ao ba teaneng le
116_0377 re be re tsohe le
116_0378 ke no ebola tapole habedi
116_0380 e re ha mafube a
116_0381 thero le mo kgoqola le
116_0384 nkgwebetha la re ke le
116_0388 cognitive behavioral therapy
116_0390 mmusong wa provense ya freistata
116_0392 se bo bokeletswe le ho
116_0393 eastern orthodox churches
116_0394 ke ho hlakisa ka bobatsi
116_0397 se o fetohile ha ba
116_0398 terameng ee o ka re
116_0399 wa setlokotsejana a se a
116_0400 boikara belo ba motlolamolao ho
116_0401 se bolelwang ka ho kgethela
116_0402 o ne a ye a
116_0403 le phethelo semelo sa baphetwa
116_0405 re o tshwenngwa ke ntaramane
116_0406 e metjha ya sekimi ke
116_0407 le ho rutweng titjhere e
116_0408 meralo diqeto le kameho ya
116_0409 tjhee ke ne kekopa matlaa
116_0410 bohloko ba seeta bo utluwa
116_0411 ba loketseng ho ka lekolwa
116_0412 a tsamaye le a e
116_0414 e hlokahalang ho batlana le
116_0415 ho ka fefolwa ke difefonyana
116_0418 faeba tlelase patsi le seili
116_0421 lehlabathe le kalaka ho ya
116_0422 lekala la ho ithuta la
116_0423 ya moriti le khanopi ya
116_0424 ka ho rialo ha ke
116_0425 ya ka ke e bakilweng
116_0426 o se a nyetswe ke
116_0427 moshaneso ha ke re o
116_0429 ho iteanya le majoro le
116_0430 sa ho entela feberu e
116_0432 o ne a mofilwe ke
116_0434 a se a suthile a
116_0435 e ithutwang ho isa puong
116_0437 new age movement
116_0438 australian prime minister
116_0443 a porafete ho ka ipehwa
116_0446 ba ho kgeswa le ho
116_0453 a kgwehla e e ka
116_0454 ba di tshwaetsweng le ditekolo
116_0456 hoa ho a ka ba
116_0459 a fumanwang ho bomarabe ke
116_0462 ba se ba itshwantsha le
116_0463 ruburiki ho na le ho
116_0465 mabone ya bohlophisi ya ho
116_0467 accurate date information
116_0471 ke a itahla ha ke
116_0472 league championship series
116_0473 ho ajwa ha maruo a
116_0475 bo fetohakang le f ho
116_0476 letsholo la ho hlasela le
116_0477 ho lefshwa e le tefiso
116_0484 intellectual property rights
116_0486 ho jewang hlenhlenyane ho ya
116_0488 re ke ke ra qhelela
116_0492 metse ya ditoropo le kgodiso
116_0495 le baahisane ba phallela ha
116_0502 ke pac e tshwanelehileng di
116_0503 environmental protection agency
116_0504 ya ya matamo a ho
116_0505 la ka le ne le
116_0506 be ha e ne e
116_0507 oo o o kgethileng ho
116_0508 ba menngweng ka boithaopo ho
116_0509 se ke lahlehetswe ke mamello
116_0510 wa sejwalejwale o tenyetsehang le
116_0511 ba hlanya ho ne ho
116_0512 ha ke hopole le ka
116_0513 sa di ja le ho
116_0514 ho re ha e ye
116_0515 infant mortality rate
116_0518 american medical association
116_0520 itebala ho re ba ya
116_0521 patanta eo paloyohle ya dipatanta
116_0524 nnyane a swaba ha a
116_0525 e na le ho rema
116_0526 seporo le dikou le ho
116_0527 sheshe le ha e le
116_0531 bontatemoholo ba ne baitshepetse ditaola
116_0532 royal australian air
116_0535 trade unions ho ba fa
116_0538 le hoketsweng tshepeng ya heke
116_0539 e ikemelang e le notshi
116_0540 music awards winners
116_0541 ha ho a ka ha
116_0545 e fumanweng e le dimpho
116_0547 ke ka maswabi ha ke
116_0549 moreki a ka iteanyang le
116_0551 ho sisinyeha ho hosesane ha
116_0552 e tshehadi e sa tswaleng
116_0553 keletso e ahang e buang
116_0558 renkeng ya baragwanath barekisi ba
116_0561 ho fumana setifikeiti sa botho
116_0563 ka hapeterose a ne a
116_0564 e se e hlwahlwa hakaalo
116_0565 mesebetsing e tshwauwang ke baithutimmoho
116_0567 le ya taemane ho ka
116_0569 ho ya ka molawana no
116_0570 a ne a sa tsube
116_0571 bo bokellwe le ho sire
116_0572 american musical theatre
116_0573 united states department
116_0574 le hlolwa ke ho itjarela
116_0577 mahata e le marabe ya
116_0578 actor academy award
116_0582 ka ho mo silela lesheleshele
116_0585 holy roman emperor
116_0594 di re thobela diponono di
116_0596 thubile dijana ke ho dubakana
116_0597 ho hlekwahlekwa boipepeso bo sa
116_0599 ba ne ba kopanele tulong
116_0600 a b ya e le
116_0603 tsatsona di ka ba le
116_0605 e mpehile merebele e le
116_0606 e ne e le lengwee
116_0607 na setsomi se ne se
116_0608 oo ba mo lwantshang ha
116_0610 programming language family
116_0611 res ipsa loquitur
116_0613 ee e ne e le
116_0614 ya mebala ya puisano ya
117_0001 a foreshe e laolwang ke
117_0002 le dilomo meru e kopaneng
117_0003 australian capital territory
117_0004 ka nicd ho na le
117_0005 a ka re o sa
117_0006 ho be le phumantso e
117_0007 jwang ha ho se ho
117_0008 ha ho kgonehe ho ka
117_0010 o e fetolele ho boetsuwa
117_0011 ha a ka a otlana
117_0012 o sitwang ho a qoba
117_0013 wa bobiala o ne o
117_0014 a le thelefounung ho di
117_0017 ha kgahliso a mo fata
117_0018 ha e ba ba ne
117_0022 mmuso wa provense ya freistata
117_0023 drug administration fda
117_0024 o tlabidika a thwene a
117_0025 mophedisuwa e tlatsitsweng foromong ya
117_0026 o se ke wa mpitsa
117_0032 mekutu ya ho potlakisa kgokahanyo
117_0033 qaleha moferefere ha dubeha ha
117_0035 ditloholwana na ebelefatshe le ya
117_0036 ha tokollo ya fpe e
117_0038 dilamunu dilemone diphaenapole le ditamati
117_0039 dihlooho le di hloohwana ditemeng
117_0041 tshebediso ya matshwao a puo
117_0042 masitha o ne a tshajwa
117_0043 kgalefo eo ha e na
117_0046 o ka fa sheri wa
117_0049 e ne e mo arohantse
117_0051 states army soldiers
117_0052 leshome le metso e mehlano
117_0053 keletswalo la horemohlomong o ka
117_0055 mphe semeremere le tshea ke
117_0056 ya panama ya re pheu
117_0057 pepeneng le ho se be
117_0058 e le lekunutu ho inkunela
117_0059 o ne o re na
117_0060 e phethahetseng ya tlotlontswe le
117_0061 le leng le le leng
117_0062 ha o se o ngodisitswe
117_0065 wa tlelapo ya lantjhe b
117_0066 matha le banna ba nyetseng
117_0067 ho sitswa ho hlohonolofatswa ka
117_0069 e kenyeleditse tekolo ya ditlhoko
117_0071 o di tlodisa ho ya
117_0072 ba thapameng eo ha hanghang
117_0073 ka masela a tafole le
117_0075 ho ka maiteko a ho
117_0076 ha sebolelo a ka a
117_0077 e duma ka hlohong ya
117_0081 bopilweng ka bokgabane le ka
117_0082 ya o foseditseng ha ho
117_0086 le c dipehelo le dipallo
117_0087 employee assistance programme eap ka
117_0088 chikano e ne e le
117_0089 a itholela a re tu
117_0090 major league history
117_0091 kaale e o ngongorehisang ka
117_0092 reactive oxygen species
117_0094 tsamayelana lekotsi e kieng ya
117_0096 tlamang ho ka phethwa ke
117_0097 great lakes region
117_0099 tsilatsila ho o jwetsa ka
117_0100 tlalellana di a pakellana e
117_0102 ya ditoropo ho kopanyeletsa le
117_0103 le ntshehetse ha e le
117_0107 le tjhabile le monatjana ho
117_0109 sa dumele ho ka fefolwa
117_0112 ntlhahetseng ha se tabatabelo ya
117_0113 iowa state university
117_0114 o lematsa ntjapedi ha e
117_0115 sireletseha ha ho ka etseha
117_0116 ba ramotse tikolohong ya heso
117_0119 fact date july
117_0121 ke ka lebaka la eng
117_0122 le ho re ho tshabanwe
117_0123 wa mahindu ho hatellwa difeleng
117_0124 autlwe ho bolediswa bokweta bo
117_0125 sa kgatiso ho lesedinyana la
117_0126 le ho ikemela ka hohlehohle
117_0130 e na le histori e
117_0131 le dibanana di na le
117_0132 di apostille certificate ke ditifikeiti
117_0133 le ha barata ho nkeletsa
117_0134 le manyofonyofo a swabisang tsama
117_0135 mathang ka tlase ho lefatshe
117_0136 ho boetapele ba mokga o
117_0137 ba ka di ke ke
117_0139 bo a mpelaetsa ke ka
117_0140 ha a ka a mo
117_0141 free trade association
117_0142 ha ke re fara ho
117_0143 ne a sa dumellane le
117_0144 chinese communist party
117_0145 ke se ke ka mo
117_0146 rometsweng ka fekse di ke
117_0147 le dikakiso o ne a
117_0149 diphofu ha ho sa fihlelwa
117_0150 episcopal church usa
117_0151 v v v ha a
117_0153 di close corporation di partnership
117_0155 ho itwanela ka ha a
117_0156 kojwana di mahetleng le ba
117_0157 ho baeletsi ba botegniki ho
117_0158 e fifetse ke mobunyana le
117_0159 ba mo memetse meketengle dikonsareteng
117_0160 a fihlang bokgutlong ngongoreho ya
117_0161 di ja le ho di
117_0163 ka le ne le hanella
117_0164 motsemoholo ka dikhanselara le ho
117_0165 ha ke ya ke shebile
117_0166 pope pius
117_0167 leqwetha a sa re o
117_0169 le parole batlatsi ba badulasetulo
117_0171 rateng le ha ke re
117_0172 kgolohadi le e bolokilweng ya
117_0175 national historic landmark
117_0178 basebelletswa batshehetsi jjwalojwalo mekgatlong eo
117_0181 akhaonto eo o ka bolokang
117_0182 ka ba toma le ho
117_0184 ya terre firme ka ho
117_0185 venice film festival
117_0186 memorantamo o ba tsebisangka diphetohotse
117_0187 ha ke mmotsa a re
117_0188 a nwe ho faswa e
117_0189 o ntshwarele ha e le
117_0190 karabelo ke ha afihla ho
117_0191 ba fosetsaneng ha o sa
117_0192 bonngwe ka bonngwe haele mafiritshwana
117_0193 o be o di ngole
117_0194 ya kgoholeho ya monu ii
117_0195 o mobe o sa rateheng
117_0197 ho phahama le ho theoha
117_0202 e le engwe ho na
117_0203 o le malala a laotswe
117_0204 ha ho sa na moketjana
117_0205 le ho ruruha ha manonyeletso
117_0206 o be o le sehelle
117_0207 ohio state university
117_0209 bo menomasweu ba o bolayang
117_0211 ka kotloloho le ho kgutliswa
117_0212 ho ba ya ikanang a
117_0213 lekile ka makgetlokgetlo ho o
117_0214 matlong a rdp ho a
117_0215 wa ho fepa le ho
117_0216 molangwana molangwana oo ke wa
117_0217 o mula nthwane ya se
117_0219 sa baikopedi ba sa atlehang
117_0220 dikharikhulamo di na le ho
117_0222 ba a kwetse nqi ba
117_0223 metsing he motswalle ha ke
117_0224 ka ba le tshusumetso e
117_0226 southeast asian nations
117_0227 bosofe bo ka ba le
117_0228 a selasela theepe ya dimo
117_0230 se mo tlatlapile se tseka
117_0232 re ke re e tshohle
117_0233 e se e nkeme maqothe
117_0234 ha o letsetsa healthline o
117_0236 pepesehile le ho ba tlokotsing
117_0237 actor golden globe
117_0238 largest trading partner
117_0239 ke potele e kgwathwang ka
117_0240 be a sa phethise ditshepiso
117_0242 average family size
117_0243 hlahlobisisa bokantle ba makasine o
117_0244 ka ha di amana le
117_0245 e ba ya borathuto ba
117_0246 tereneng eo ke e palamang
117_0248 e ke ke ya ipitsa
117_0249 ha di kenyeletse setroi ditlhoka
117_0251 le ba bararo ba ka
117_0252 fraenkel set theory
117_0253 pokothong ya ka a ba
117_0254 le sele le bohweng ba
117_0255 itshwenye le ho itshwenya ka
117_0257 phethahaditswe o bolokolohing ba ho
117_0259 ha e ke ke ya
117_0260 football league
117_0262 mo tadima ka pelotlhomohi ka
117_0263 fetolelwe ke mofetoledi ya nkileng
117_0264 ha ho se ho tsepamisitswe
117_0265 ho itsibola ho ba le
117_0267 statistik provisionally valued
117_0268 e hatsetswang e etsuwang leqhwa
117_0269 a re leotwana lee ke
117_0271 e sa le ka madungwadungwa
117_0272 ha a ne a fihla
117_0273 mosiuwa ha a ka a
117_0275 ba jakile ho mokgatjhane ba
117_0276 mo lebelletseng ha o mmatle
117_0278 be a se a betsehile
117_0281 tshetso ya se tegeniki ho
117_0282 milky way galaxy
117_0283 ho se ke ha ba
117_0284 sefateng e se e mo
117_0285 ke ke ha ba le
117_0287 le di etetseng ha le
117_0288 v ho rafoha le ho
117_0289 e ne e thehwe ho
117_0290 oo o o nwang o
117_0292 binary search trees
117_0293 ha ba di phetle ho
117_0294 kgokahano ya dikahare le mehopolo
117_0295 tela maseru ke ho tela
117_0296 mehau ke re o ntsubise
117_0297 ka sefubeng ruri e ne
117_0298 ka ha di fuperwe ke
117_0299 a se a a kgotshe
117_0300 sa utlweng ke a ipotsa
117_0301 be a se a kgeloha
117_0303 kwetswe le mafelong a beke
117_0304 ho otloloha lenanetataisong la ho
117_0305 e be se atametseng ho
117_0306 ya tlhodisano le ya boinotshi
117_0307 tsamaisanang le metantsho e sa
117_0308 mokudi ya kulelang lefu ka
117_0309 democratic national convention
117_0310 eo a sa hloleng a
117_0311 a ka hodimodimo ao ke
117_0312 ho o isa ho makgistrata
117_0313 holofetse ba qhwadile hampempe e
117_0315 ya ho fana ka ditshebeletso
117_0316 enaha se sebapallwa ke moraparapa
117_0317 tau setswetse ke o jwetse
117_0318 ka ba ke o rohaka
117_0319 ya o tebetseng a re
117_0320 ahlotswe a fumanwe a le
117_0321 re potlololo ha a bolellwa
117_0322 se ke wa kgutlisa bukana
117_0324 le mafenethe o ne a
117_0325 o ne a sa reriswa
117_0326 fact date april
117_0327 makatsa ka ha ba ne
117_0328 le dibopeho tsa dipolelo ka
117_0329 la ho bolaya mosebetsimmoho le
117_0330 ya ho re o se
117_0331 early twentieth century
117_0332 mokgatjhane ba ne ba se
117_0333 ho tseba haholwanyane e ya
117_0334 le ba hlwaileng ho ya
117_0335 mohwehadi a bobotheha ke ho
117_0336 kgorong eo ho kenwang ho
117_0337 e baba tsehang e nepahe
117_0338 general public license
117_0339 a hlahela meduduetsane bokgeleke ba
117_0340 ba kgutlelang mahae e ne
117_0341 major league soccer
117_0342 ba ne ba haketse ba
117_0343 tswellisa batsetedi le ho hlabolla
117_0345 ha ba welajwalo a se
117_0346 a ketsamelao a diprofense le
117_0347 ka foreisetata le lesotho e
117_0348 ba be ba e kgutlise
117_0349 e ne e le diya
117_0350 central intelligence agency
117_0351 re tlole ka sekotjaneng se
117_0353 a tantetswe ka mabota a
117_0354 ewp e be ba sebedisana
117_0355 spanish civil war
117_0356 ba palamisa le ho theola
117_0357 le madi ya ka kgotsofallang
117_0358 e ka hlodisana le dikhampani
117_0359 thuthuhang le e behilweng ka
117_0361 ho dumella mmadi ho itemohela
117_0362 ho tlisitswe ke boitseko bo
117_0365 eo o e lefang ho
117_0366 ya ka tshebedisa no ya
117_0367 le ho loela ha demokerasi
117_0368 b sc b sc honours
117_0369 ha se pheko ke mosotli
117_0370 a kgohletse a le dibebe
117_0371 ho bulela bongatane le ramafothole
117_0373 leqeme ba ke ba ba
117_0374 ho nyanyatsa dijalo ka sefofane
117_0376 ke sa tsilatsile le ho
117_0378 na le voutu e le
117_0379 ha ba sa new ba
117_0380 idibane se ka o tiisetsang
117_0381 kgaello e totobe tseng sebopehong
117_0382 meso ya ditshehlo le ditsikitlano
117_0384 e nehelang ka botswadi ba
117_0386 fact date february
117_0387 seqhenqha sa moshemane a le
117_0388 grammy lifetime achievement
117_0389 lekanang mahlakoreng a mabedi a
117_0391 educational institutions established
117_0392 foreign direct investment
117_0393 o fellwe ke bosotho nthwese
117_0394 ne o theosa eo ya
117_0395 o ne o kgethwe ho
117_0397 ha di sa le yo
117_0398 ya tshbetso ya ho hulwa
117_0399 eommae e be e tukang
117_0400 re ka qolla ka ho
117_0402 masea a siiwa le bonkgono
117_0404 lekgotla la motse le tlameha
117_0405 hlokomela le ho kgetha dintho
117_0406 human rights organizations
117_0407 tb di ba le boitwanelo
117_0408 mmalerato le ho potlaka ha
117_0409 o re tsho o nyalellana
117_0410 o atameditse haufi le tharollo
117_0411 ke sector education training authority
117_0412 e ie ya tshiyamo ie
117_0414 ya batshwaredi board of trustees
117_0415 ho na le bolokollohi ba
117_0416 ho ne ho se na
117_0417 se le fiela ka dintshi
117_0418 le okametswe ke di case
117_0419 e ntle ha holo ya
117_0420 ho na le tshisinyo ya
117_0421 a koula ke eo a
117_0422 le khoutu ya setheo khoutu
117_0423 botleba mookodi ha lefafatsanele qetaho
117_0424 ho boitokisetso ho ya ho
117_0425 quantum field theory
117_0426 fetuwe ke lenaneo o fetuwe
117_0428 le dikela o ne a
117_0429 ba ke ke ba ho
117_0430 ntano mo tjhentjhela dikobo le
117_0431 o hlomolang hakaale eo ho
117_0432 tenese krikete kolofo ditebele ditantshe
117_0434 tswele ka ntlo ba yo
117_0436 e fuputswa ho na ho
117_0437 na o ka ya khemising
117_0438 le bohole e be ho
117_0439 ancient near east
117_0440 ba hlollwa ba re hoetsahetse
117_0441 american psychological association
117_0442 di e rorisa a ke
117_0443 ya dithaere e ka se
117_0444 khalkhuleita e behilwe e le
117_0445 ba ka ha re majalefa
117_0446 botlolo ya boranti le ho
117_0447 ke ke a buellwa ke
117_0449 a ke o hlalose hakgutshwanyane
117_0451 e le la leteterre ho
117_0452 mo kgothatsa ka ho mo
117_0453 tsoke letjhoba a akgotse lengetse
117_0454 ba tshwanelehang ho ba khanseleng
117_0455 ne a ye a bitswe
117_0456 raditaba le tjhotjholosa ba ne
117_0458 ntlafaditsweng ke dishweshwehadi bomphatlalatsane selemela
117_0459 ya kheshe eo ho fanwang
117_0460 popeho ya phepelo ya dijo
117_0461 eo o ka fetisetswang ho
117_0462 ho e hlatswa le ho
117_0463 ha e le mariha ho
117_0464 ba motlolamolao ho buseletsa mo
117_0465 ho lekanya boleng ba ho
117_0466 kgannwang ke stjhaba e le
117_0468 ha e ka ha ho
117_0469 le ho iphumanela dikarabo ka
117_0470 ha e ka ha ba
117_0472 metlae yabatho ba ekang ba
117_0473 ka mokgwa o nang le
117_0475 se ka bokellwa le ho
117_0476 ho ke ke ha tellwa
117_0478 wa ho beisa ka dipere
117_0479 national film registry
117_0480 tlameho ya boramosebetsi ya ho
117_0481 barui ka ha e ba
117_0482 ma israel le ma palestina
117_0483 islamic conference oic
117_0484 a kgomathisitsweng ho lokollweng ha
117_0485 ba a phema ba ye
117_0486 leboha kgutlana la ka ramasedi
117_0487 o ne a sa ikutlwe
117_0488 johns hopkins university
117_0489 baphetwa baa ba ne ba
117_0490 ba ne ba ke ke
117_0491 taolo ya mehlodi ya tlhaho
117_0492 rock music groups
117_0493 e etelang masea a sa
117_0495 ho ya hoile a keketehisa
117_0496 o se ne a ye
117_0497 aids ke ba pepesehileng ho
117_0498 re ke leso ke leso
117_0499 hlephe o ne a itswetse
117_0500 ho le dintwa vmme e
117_0502 e tobisitsweng ho phofu ke
117_0503 ho tlwaetsa le ho rupela
117_0505 ho hlekelwa sebae ka ho
117_0507 re ne re o tshepile
117_0508 ke bra t tshepiso a
117_0509 academy award winners
117_0510 ka bui sana le mec
117_0512 ho ba eo ho sebetswang
117_0514 le mosuwetsana ba ka lekanyang
117_0515 ke ha bohlokw a ho
117_0516 moshanyana ha di jewe paleng
117_0517 ne e le la ho
117_0518 ba ne ba sa nahane
117_0519 internet protocol suite
117_0520 e hlileng e o hwayahwayang
117_0521 golden globe winners
117_0522 monetary fund imf
117_0523 se netefatswa ke maele a
117_0524 di kgobokantswe ho ya ka
117_0525 ke re na ha e
117_0526 kentsweng lebitleng la ramoroko le
117_0527 uk singles chart
117_0528 king charles
117_0529 ho sebeletsa ho kopanngwa ha
117_0530 o potapotileng ha ba sa
117_0531 he ha re phahamiseng ke
117_0532 radiphaphatha a mo re qhau
117_0533 atlantic treaty organization
117_0534 open source software
117_0535 bo oonaempa a tsamaellanang le
117_0536 ho na le mehato ya
117_0537 a hlomamisa dikomiti ho ya
117_0538 e tsepamisitsweng ke setsebi se
117_0539 e khutshwanyanehokarolo ya b o
117_0540 ke re ke ne ke
117_0541 eo e ka tlalehwa embasing
117_0542 ene e le ho sireletswa
117_0543 ba sebetsanang le bohlahlobi le
117_0544 ho thata ho dumela tsena
117_0545 ka ha re ne re
117_0546 current prime minister
117_0548 futsitse lebitsola haehobanee nee le
117_0549 clean air act
117_0550 nne o dulele ho komakoma
117_0553 ho le ba mo mametseng
117_0554 e ke ke ya sebetswa
117_0555 united states marine
117_0556 so ye le hojana a
117_0557 a di fe tlelereke ya
117_0558 eo o se a rapaletse
117_0560 mashome a mararo ka mora
117_0563 ka be a mo lohetse
117_0564 se ke a hlekefetsa mmeleng
117_0565 emang honamoo ho kgaruma e
117_0566 king james bible
117_0567 ka thato ya tshwene terene
117_0569 ipaka ho re ha e
117_0570 new york state
117_0571 services hokenyelletswa le ba beileng
117_0572 ka tlelika konopong ya ho
117_0573 sa lleng o shwela tharing
117_0574 e ne e le moadvokate
118_0010 lesira le le pudutswana la
118_0012 anke joyene ya dilemonyana e
118_0013 le ho lekolwa ha ho
118_0018 ne a mo ja tsome
118_0020 o sokolotswe le ha ho
118_0021 ba ikgantsha le ho ba
118_0027 main sequence stars
118_0031 ba ho pholoha le ho
118_0037 sereledi a phoqeha ha a
118_0038 ba badudi ba saruri ba
118_0039 o ke o tlohele ho
118_0040 phetho ke tu le ha
118_0041 ba ne ba loha leqheka
118_0043 ho nalo a be a
118_0044 roba dipelo he moradia lebajwa
118_0045 ho kgohlela ho sa feleng
118_0046 le ha ebe ha o
118_0047 le fihlellehe ho ya ka
118_0048 a re ke mehlehlo ya
118_0049 ho ba lebella le ho
118_0050 ho nehwa tlotla e mo
118_0051 articles containing proofs
118_0052 o mofubedu o phatsimang le
118_0053 di botse e ya kae
118_0054 o ne a ntse a
118_0055 o sa ye ngakeng o
118_0056 sa yang kerekeng e le
118_0057 ka hodisang dipoelo ka ho
118_0058 ha ba re ho se
118_0059 o se ke wa ntuba
118_0060 la ho pepa le eteletswe
118_0061 mothendari a ka phumola ho
118_0062 e le ho utulla le
118_0063 a absa fnb nedbank a
118_0067 ho ntjwetsa dife na jwale
118_0073 ya ho thaotha le ho
118_0075 se sebetswe ka le ho
118_0082 emetsefeela ho re diphala di
118_0083 ka o fasebaka ho dumedisa
118_0084 ditjaka a sa jese thweetsana
118_0086 leihlo le fahlwa le shebile
118_0087 susumeditse borakgwebo ho bula dimmotjhara
118_0090 ha di eme di botse
118_0092 mose wane ho meedi ya
118_0096 million metric tons
118_0097 e laeleditsweng e se e
118_0103 hella nehelanong di sebe disitswe
118_0104 ya ac jordan e bitswang
118_0110 ho be le lesoba lebitleng
118_0111 million years old
118_0113 ho ke ke h a
118_0114 itshwarisa be ke ikwalle ho
118_0119 motjhine o ne o se
118_0124 ha o no tlohelwa ho
118_0126 beehetswe ka thokobakeng sa ho
118_0127 horizontal gene transfer
118_0128 ba kgarume ba be ba
118_0129 le re fihlise re bolokehile
118_0132 ha re re re qhwaolla
118_0133 mario kart
118_0135 ho rora ha helikopotara e
118_0144 e ne e se ho
118_0145 formal diplomatic relations
118_0146 carnegie mellon university
118_0147 e a behelwa ho o
118_0150 le lesoba le lenyenyane ka
118_0154 ba bamemuwa makhing wa bahlomphehi
118_0157 kgutshwane bahlahlobi ba lekodisise hantle
118_0158 e ne e le polokwe
118_0164 primitive recursive functions
118_0165 early iron age
118_0168 ya turfloop mekete ya ho
118_0175 o qalella ho lla ho
118_0180 ho ingodisa sedikeng sa ho
118_0182 ho oo ho fellwang ho
118_0184 nnyeonyeo o bitsa lebitso la
118_0187 be le selelekela mmele o
118_0188 operation iraqi freedom
118_0189 se ka susumetsang babadi ho
118_0195 jewish american writers
118_0196 ha di a tshehetswa ho
118_0204 e a apesitse ho phema
118_0205 ya pdf ya phr e
118_0206 o ne o se yo
118_0207 narrow gauge lines
118_0210 boikutlo boiketlo le ho o
118_0217 ne ho ithabiswa ka metjeko
118_0219 e bapetsweng ke mopresidente wa
118_0222 ya ho tshwarelwa ho leswe
118_0224 ho kgutleha hlakoreng la methepa
118_0226 ha a a hlakelwa ke
118_0227 la bataung traders qwaqwa ke
118_0228 ngwanangwanake o tswere ya ditswere
118_0231 ha a le d e
118_0234 lebese la letswele bomme ba
118_0235 clarify date march
118_0237 ho kgalengwa re ke ke
118_0238 be o tshetswe ke bannga
118_0239 ya ho suthiswa ha baipehi
118_0241 kgothatswa ke ho thaotha ho
118_0242 green bay packers
118_0243 iv ka ho hokela ka
118_0246 wa matona a robong ho
118_0248 ke kgitlehang dibete ke boitshwaronyana
118_0249 metsikapa e mo shapang ho
118_0251 great rift valley
118_0255 gross domestic product
118_0256 a hauhelwe a fuwemosebetsi o
118_0261 personal income tax
118_0263 la kgiro haeba o le
118_0265 wa ntsholela hanghang o re
118_0268 ke ke tsalefuwa gemskemorerowathusoyabongakaoreretswengbasebeletsi ba
118_0269 ke ho se lekalekane ha
118_0270 ba silela motoho kalona a
118_0272 le ho otlwa e le
118_0273 sa bollang ha a qhaleha
118_0274 ha ho na le dikgaello
118_0276 le ho se di apare
118_0277 o ne a itjele ka
118_0278 ya tlhalo ba romele afidaviti
118_0279 clarify date december
118_0284 yeo re ka e fang
118_0289 e be e amohelehang e
118_0291 ngwanaenwa a nthuta ho fina
118_0292 le dithelevisheneng ho ne ho
118_0295 e simolla lekwa e yo
118_0296 ka ho ba le dikgothaletso
118_0297 jorge luis borges
118_0303 ka moahi wa joburg ho
118_0306 ba foromelang ditene nokengya kgopjane
118_0308 o re ho etsahalang hantlentle
118_0309 tlositswe setulong sa botshepehi ka
118_0310 dihlahiswa non proliferation status of
118_0312 a hlabehile o ne a
118_0318 bokgabo botebo le ho tsepama
118_0322 ke ho re a se
118_0325 p na ho na le
118_0328 ne ba sa tshabe ho
118_0329 ba ka e nkang ha
118_0330 lengau le ne le le
118_0336 ke ke wa keketeha ha
118_0338 ya fokolang ya dulang sebakeng
118_0342 re a se bonye le
118_0343 a be le yunifomo eo
118_0344 ba re ke please call
118_0351 rugby world cup
118_0355 ho ba ka ncop ke
118_0359 se o lokile ba crime
118_0364 ha o re ha o
118_0365 ba batsho le ba basweu
118_0367 di jehang ba kgonang ho
118_0372 hard disk drive
118_0374 ho ameha ketsahalong ya botshwasi
118_0375 seroki sa morenengha ho etellwa
118_0378 polymerase chain reaction
118_0386 ho mo lwantsha ha ho
118_0389 ya dikgetla ho kutwa ha
118_0392 le di arv di ka
118_0393 butse mokete ka pina ya
118_0400 ho hira ikopanyeng le moeletsi
118_0402 ne a utswitse diphahlo lebenkeleng
118_0403 oo e ho ba le
118_0405 ho raleng le ho phethiseng
118_0407 ke lesira le le pudutswana
118_0410 career home run
118_0412 le phethiso di na le
118_0413 kgafetsa le kgafetsa le diseneke
118_0416 ho hiruwa ha ka potefoliong
118_0419 american film producers
118_0421 ba tshedisehe o na le
118_0426 se o ngodisitse ha ho
118_0428 ne ba sa di fumantshwe
118_0430 ho fepa le ho nwesa
118_0434 e rerilweng ka lekgetlo le
118_0435 tshwanang le mekitlane ya thepa
118_0437 o ikgothatsa ka ho re
118_0439 ba lefitori ha se bonwe
118_0442 in die land wat die
118_0443 mmamenotwana towe o se ke
118_0445 ho south african revenue service
118_0448 lehlwa ha le qhibidiha dithabeng
118_0449 ne a imakaditse ka ho
118_0453 ke hora ya bohlano thapama
118_0456 ya ho tiisetsa ditshaeno le
118_0457 diselefounu di ka utsuwa ho
118_0460 dilomo meru e kopaneng diphulana
118_0461 e a ke le duleng
118_0464 ka ke iteletse ho lwana
118_0466 a borikgwe bo botsho kausu
118_0467 a robale ka dieta o
118_0471 a le lebeletse le ne
118_0472 notable examples include
118_0475 mo qhoqhang ho intlafatsa ho
118_0476 bo hlollang ha fihlamotsotso wa
118_0477 e kenngwang dikotikoting e pakwang
118_0482 mareo le mererong ya diprojekte
118_0488 hlwatswa sebae ka letoto la
118_0492 ha a na ho ka
118_0493 h tswala tjheleteng ya tsetetsweng
118_0494 ne ke thabile ho re
118_0498 san diego chargers
118_0503 lora a haola meruemetala ya
118_0507 states air force
118_0510 late bronze age
118_0514 ya kutlo hcps boenjinere ba
118_0515 ha ba se ba tshwanelaha
118_0516 ho felehetswa ke memorandamo le
118_0518 michigan state university
118_0519 strategic air command
118_0520 o lonngwe ke mokgodutswane ke
118_0521 a le khwaereng e ka
118_0524 e sa kgahliseng ya dingangisano
118_0529 phoso e tsamaya le mohatisi
118_0532 ho mo fa matl a
118_0533 persian gulf war
118_0535 natural resources include
118_0539 fapaneng le ho ya ka
118_0540 a le boyeneng a hlaheletse
118_0542 ho ya ka diphapang na
118_0545 skweyiya jj ba dumellaneng le
118_0547 e ne e le disontaha
118_0551 low earth orbit
118_0556 le nna ke le tjena
118_0561 o kgothetse ho na le
118_0565 quantum field theories
118_0571 mafosisa o be o tshehetse
118_0577 multi purpose community centres ke
118_0580 ho a le b ha
118_0581 eo o sa tshwanelang ho
118_0588 liberal arts colleges
118_0589 ka ekaba ho se ho
118_0590 shejulu e phatlaladitsweng koranteng ya
118_0596 ho sa na le ho
118_0598 harvard university alumni
118_0599 best original screenplay
118_0616 di buisane le fhr ka
118_0618 verify credibility dater
118_0620 rejisetara le sephetho di loketse
118_0621 v ha a ne a
118_0623 ha e a nkgotsofatsa hohang
118_0625 dubious date march
118_0629 ba sebedisang matsoho ho buwa
118_0630 e ka ha ho a
118_0634 e kotjwang ke rekoto ya
119_0006 ho se ho le leratanyana
119_0007 american civil war
119_0008 ha o ie ditsietsing o
119_0010 e ditshila ho ntatae he
119_0014 southwestern united states
119_0021 dikhompeuta theepa ya odiyo theepa
119_0023 qaqa ha a phehella ho
119_0029 minister tony blair
119_0031 e sa le ka matjeke
119_0042 o re ho thweng na
119_0043 kgokahanong ya inthanethe ha ho
119_0047 a mo otla selefounu le
119_0048 batleng ho jarelwa mefokolo ke
119_0052 ka ho hlohlotswa ho honyenyane
119_0054 welajwalo a se ke a
119_0058 ho cbrnm e ke ke
119_0065 bigeye tuna southern bluefin tuna
119_0067 ba gcis ha ba na
119_0068 a booki o ne a
119_0069 phesente ya dipuseletso e lekanngwa
119_0070 pope paul
119_0076 eo ke sa eboneng ke
119_0077 bofe bo qobellwang ke bili
119_0079 ho inyatsa le ho se
119_0081 o ye a re di
119_0082 o ne a se rekelwe
119_0083 ha e le tlwaelovv ke
119_0089 masenke le seratswana ka jareteng
119_0090 sa heso ke ne ke
119_0091 vector space
119_0092 kgunyedi ya monyemo yafapanyang dikgarebe
119_0093 greek cypriot area
119_0094 sa lekgethi o be o
119_0095 b ya e le lehokaleamanyi
119_0096 ne a jere kgetsi ya
119_0103 tahwa ha a na tlhompho
119_0105 re se re sa phele
119_0108 independent complaints directorate ha o
119_0109 afghan national army
119_0110 ke eso ka ba ke
119_0111 ne ke re ha ke
119_0114 ne a ye a utlwele
119_0116 ne e le la leteterre
119_0119 ha e le afeng moikopedi
119_0122 ne ba ke ke ba
119_0124 ho sa natswe le ha
119_0126 ka sebele ya ileng a
119_0130 wa mantlha wa tlhekelo ho
119_0133 sir harry warden sir harry
119_0137 ba tshwanetse ho ba le
119_0140 ya akhauntu e kopanngweng ho
119_0145 o ngole le metsotso ya
119_0152 ha ho kwae koomeng ho
119_0156 partial differential equations
119_0158 e le sekgukhuni o ne
119_0160 batjhelete ho phahama le ho
119_0161 sa diepollo le dikenkeng se
119_0164 ho hiv le phamokate o
119_0165 air force base
119_0172 le se le hopotse ho
119_0176 a mofilwe ke ngwananyana ya
119_0181 ya d e f le
119_0185 ne di sa mo natefele
119_0186 ditereke ho thakgolwa ha foramo
119_0187 a kgopisehile o ne a
119_0190 red blood cells
119_0193 ho na le ba binang
119_0195 john von neumann
119_0202 ho ikana a se ke
119_0203 calcium le phosphorus e ka
119_0206 ya ho ingodisetsa ho vouta
119_0208 lefellwang ho the director general
119_0218 o mo tshwantshisa le taemane
119_0219 kennedy space center
119_0221 o le kgethong ya sapphire
119_0224 o ne a nyetse sethepu
119_0228 rational choice theory
119_0229 a o shobile a o
119_0238 ho enfolopo ke ne ke
119_0243 se hetse sa ba sa
119_0244 yah ore asasemente e se
119_0245 adriaan van wyk le mof
119_0246 ho fanyehwa le ho kgaotswa
119_0249 le ke le mo nehe
119_0251 ka ho qoholleha kahong ya
119_0255 amohelwang ho ba eo ho
119_0256 ha ke a tlela ho
119_0263 african development community
119_0266 ha ke a kgomaretswa ho
119_0267 natural law party
119_0269 chinese civil war
119_0278 ho ahlola ka ho hirwa
119_0282 martin luther king
119_0283 e o alafang e letotong
119_0287 ka mokgwa o sa tlwaelehang
119_0290 ho ke ke ha qojwa
119_0296 motla o tutswe wa jeremane
119_0298 accident statistical system samrass o
119_0301 bolokolohi le ho ikutlwahatsa ka
119_0302 bohlokwahadi ya ho sebeletswa ka
119_0306 o mobe o tletseng lehloyo
119_0311 professional baseball teams
119_0312 fact date june
119_0315 ho tuba ha eo a
119_0317 ha ho se ho kgethuwe
119_0322 ke palesa ha e le
119_0323 kokoroha a saretswe ha mmuelli
119_0325 ba sehopotso pelong ya ka
119_0330 holy roman emperors
119_0335 le phonyohile ka soba la
119_0336 ya diphetolelo le tlhaolo ya
119_0337 e tiiseditsweng ya tokomane ya
119_0338 states environmental protection
119_0341 los angeles county
119_0342 ne a ye a kgonye
119_0343 ba se ikutlwe ba phahametse
119_0348 a se a sa ye
119_0351 swiss german dialects
119_0352 ditho ya inthanete member online
119_0355 ho thehilwe ho arolwa ha
119_0360 british army personnel
119_0361 nuclear magnetic resonance
119_0364 ha e nnqwe e tshetse
119_0372 eo a reheletsweng kayona ha
119_0375 boiteko bo etswang ba ho
119_0376 le lesweu o feleheditswe ke
119_0377 second polish republic
119_0379 cannes film festival
119_0380 le setjhaba ka kakaretso di
119_0381 o fetisetsapelebakengsatsatlhahlobisoyammele patholoji thekenolojiyabongaka le
119_0382 kola sa lebollo tlotlo elebiswangdiketsong
119_0383 ya bohlophisi ya ho foreima
119_0384 kgahlano le ho qhelelwa ka
119_0394 narrative a re qoqela ka
119_0395 ya hatisitseng ya phatlaladitseng ya
119_0396 ba ne ba re ba
119_0398 ka tshwanelo le ka ho
119_0400 ne o sa e tshohle
119_0404 ha ho ne ho phelwa
119_0405 eo ha ho se ho
119_0410 le hoja ke ne ke
119_0411 ho lefatshe ba ke ke
119_0414 flagship radio station
119_0415 mmuele le ha a ne
119_0418 ba be le lekeno la
119_0422 ke mathela ho sylvester eo
119_0425 motsana wa menkgwaneng o qetse
119_0427 o se a hlalositse ho
119_0428 le sa duletseng boshof re
119_0430 ke eo mo a emeng
119_0433 hlapanyeditsweng e tiisang boitshetleho ba
119_0434 european central bank
119_0435 ba wa kitikiti kitikiti kitikiti
119_0438 national basketball association
119_0440 ao ke qetang ho o
119_0442 a tshwaye karabo ya pele
119_0444 nkatana ho ikgona ho kgora
119_0445 ya mmino ya medumo ya
119_0449 ha ba itokisetsa ho ya
119_0455 o phethelwa ho o hlahlamang
119_0457 ba ho o aba o
119_0461 le kgolofalo ya ho ya
119_0462 san diego padres
119_0468 tleloupung le mmapeng wa atlelase
119_0474 ne e le ka phirimana
119_0475 la porovense la kgauteng ke
119_0477 ne e le makaroff nthwe
119_0478 di sa fahlwa a kokosile
119_0482 re a be re sa
119_0483 etswe o se o le
119_0487 se seka sekwa le ho
119_0490 ha le qhibidiha dithabeng ha
119_0491 qalong ya mosebtsi wa ho
119_0493 bat la e se na
119_0495 a mo nyaretse le fensetereng
119_0496 ke se ke ka kgoba
119_0500 american quarter horse
119_0501 ho se ho tsamauwa ka
119_0503 sesupo sa ho inehela ha
119_0505 e re kg kg kgrr
119_0506 o rwesitsweng ofisiri eo ya
119_0511 o a mo aka ha
119_0512 a sa batleheng ka ho
119_0515 ke kutlwi siso ya ditlhokeho
119_0520 ba tsepame ba otlolohile ba
119_0521 eo di mo tshwarang ho
119_0523 piet o letlaila ha o
119_0529 mosebeletsi wa laeborari ya heno
119_0530 united states code
119_0531 tampa bay buccaneers
119_0532 e ipatileng tb e tsohileng
119_0533 se lokolohileng bofumeng le bohloking
119_0538 le ho nehelana ka ditema
119_0540 ba batshehadi le ba batona
119_0544 referense ha ho se ho
119_0546 ba arola ho ya ka
119_0557 oxford university press
119_0560 bo ke ke ba fola
119_0563 ngwanelajakane a ba a timellwa
119_0566 congestive heart failure
119_0570 sa fellang e ka ho
119_0572 se sa thuswe ke moemedi
119_0573 ke ne ke le manganga
119_0574 mafubedu a re tlere setebele
119_0575 a bokolla seboko se hlomolang
119_0576 ya botegniki patlisisong ya dikotsi
119_0577 resources ke ha mekgolo leaves
119_0579 islamic conference members
119_0582 democratically elected government
119_0583 ba shwelletse mokuleng ka boomo
119_0585 e mo hlekefetsang ke ba
119_0586 di billiard ho haha le
119_0587 ke ne ke o laya
119_0589 ba ho kenyetse thelefono ya
119_0591 a re ake uke ichi
119_0592 se e le ba ahetseng
119_0593 di na le sethethefatsi se
119_0594 a nthuta ho fina setebele
119_0597 ne e le ho ya
119_0598 monokotshwai ha o butswe ka
119_0599 e ne e re ke
119_0601 o ne a se rekelwe
119_0602 ha e le tlwaelovv ke
119_0604 ya mo kgahlang ke ya
119_0608 masenke le seratswana ka jareteng
119_0609 sa heso ke ne ke
119_0610 vector space
119_0611 kgunyedi ya monyemo yafapanyang dikgarebe
119_0612 greek cypriot area
119_0614 b ya e le lehokaleamanyi
119_0619 re e ne e re
119_0621 ba betanang ha ba ntshane
119_0622 tahwa ha a na tlhompho
119_0624 re se re sa phele
119_0627 independent complaints directorate ha o
119_0628 afghan national army
119_0633 ne a ye a utlwele
119_0636 ka mmono o lekang hofedisa
119_0638 ha e le afeng moikopedi
119_0639 ofihlile a idibana ha a
119_0640 o le bookameding bo bohareng
120_0001 soma leho nyefola se sa
120_0002 ba ngo le cbo ba
120_0003 di poma diterata ka dipeta
120_0004 junior high school
120_0009 thajana ya mapungubwe kamorao ho
120_0015 ho ka ikopangwa le iucn
120_0017 f a ka laelwa ho
120_0019 hlwahlwa tjhebelopele le pono e
120_0021 humid continental climate
120_0023 pope paul
120_0024 e ke ke ya leshwa
120_0026 o be o a sebedise
120_0028 e kojwa e sa le
120_0029 le ho se be le
120_0031 ba neba e buela sekgukgung
120_0033 mdnb le ho rala mekgwatshebetso
120_0034 orbital angular momentum
120_0037 ya mmeleng o na le
120_0039 a akgetse setipana sesesweu sa
120_0042 ba lebella le ho ba
120_0043 ka booker t big show
120_0048 moshweshwe moshwashwaila ya e ba
120_0052 international monetary fund le ditheo
120_0054 eo ke e labalabelang ha
120_0058 atlantic slave trade
120_0059 e tshetse seturupu se se
120_0060 ho ka ba le ngangisano
120_0061 international olympic committee
120_0063 of sa hpcsa e sa
120_0067 national geographic society
120_0073 o ne a mo ja
120_0074 ha re a tleha ho
120_0075 hodima a se a re
120_0078 be ke le hlokela tlhompho
120_0079 ba re le dipampiring e
120_0081 ba lahlehileng e ya weposaeteng
120_0082 ditholo le difofu ho bakileng
120_0085 phamokate din a le ketsahalo
120_0086 cite book author
120_0088 i e tsolo le qumbu
120_0090 moemanotshi ya ba kabelwamanong ka
120_0093 qholotsanwa ditjhaba di telela le
120_0104 diforomo ha di fumanehe khomputeng
120_0109 thunngwa sephakeng a ba a
120_0110 dihlotshwana tsefapafapaneng ho ya ka
120_0111 porafete ho ka ipehwa ho
120_0114 ba re rommeng ho a
120_0119 scottish national party
120_0125 ke se ke le ntshitse
120_0132 re ne re ka ya
120_0133 e labalabelwang ya lerato ya
120_0134 puo e bontshang ho ba
120_0137 sci fi channel
120_0139 a re bolella le mahlabisadihlong
120_0142 ha o ka wa ja
120_0143 lekanyetsa e le ho ka
120_0145 national inventors hall
120_0146 be ke tsosa dibata masene
120_0148 ho ka ba le kgohlano
120_0150 le ho kenngwa tshebetsong ha
120_0156 ba ho re rakgwebo a
120_0163 be a latole bosehla le
120_0165 ho ba okametseng bo ka
120_0166 ford motor company
120_0168 romelwa ka poso e rejistarilweng
120_0169 united states president
120_0171 thabele manyofonyo ao o a
120_0172 kgolo la puso ya gauteng
120_0173 wa tleliniki ho o fa
120_0174 re a amohetseng a re
120_0175 modula le ho diehisa ho
120_0177 manager ka ho ya ka
120_0179 mongodi o nahanisisa ntlha e
120_0181 le ho hlekefetswa meyeng maikutlong
120_0182 sela meqomong a be a
120_0183 a nkilwe ka boinahanelo ba
120_0185 ho lekane ke ne ke
120_0187 fekese ha ho se ditefiso
120_0188 di ka fihlelwa ka ho
120_0193 sa d ha e ba
120_0194 ya mophedisuwa e tlatsitsweng foromong
120_0195 international hydrographic organization
120_0197 ba ka o ja o
120_0201 le ha ba e na
120_0204 ho ne ho se ka
120_0206 ke nku ha a lle
120_0209 o se a mo kgorohela
120_0210 sa ntome le ho ntoma
120_0211 ba ne ba phethelwa ditshomo
120_0214 theho ikgapela setjwaba ka ho
120_0216 ba bararo ba ka pakang
120_0218 american television actors
120_0220 eo a siyang a e
120_0226 o ne o se turu
120_0228 roman catholic archbishops
120_0229 united states constitution
120_0232 a futhumetseng ho tola ka
120_0233 new south wales
120_0236 b e ka fetisetsa ho
120_0238 se lebeletsweng le se hlokwang
120_0239 art deco buildings
120_0240 o bolokolohing ba ho ho
120_0242 dineo na o ne o
120_0245 moiteding bashanyana ba ketimisa dikgamelwana
120_0246 e laollotswe setsheng sa internete
120_0247 american airlines flight
120_0251 nyalanngwa ha di rutwa le
120_0252 ralph waldo emerson
120_0255 samane ka seqo ho motsekiswa
120_0257 ho shejwana ka la moleka
120_0264 ka meqeqekohadi ya mekotla ya
120_0265 rolling stone magazine
120_0266 world heritage sites
120_0267 o phatladitse masedinyaneng dithelevishineng le
120_0268 e thehileng bodumeding di fbo
120_0273 mabinabine a pelo ya ka
120_0279 o se a re jwetsitse
120_0282 federal aviation administration
120_0286 nyalang ha rakgadiae a re
120_0287 tsamaelanang le tjhesehelo e yeng
120_0289 ha e hlolwe ke sebata
120_0294 soba la nale a ke
120_0297 c ebang o sa etse
120_0298 ya diflete le c ho
120_0299 e ka tshehetswang ka h
120_0300 cbnrm e ke ke ya
120_0301 sitiswa ke hona ho nwa
120_0302 states military academy
120_0303 le phelaka ho kolla ntsi
120_0304 eo ho nkuweng sampole ho
120_0305 o halefiswa le ke dinthwana
120_0306 ata a ko qoqe ka
120_0307 o sa amaneng le baadimi
120_0308 mo re ka o letsetsang
120_0312 e lekgatheng la lephethi e
120_0313 o e filweng potsong ka
120_0314 eo a sa e boneng
120_0315 a moipiletsi a boipilets la
120_0316 o se ke wa pompa
120_0317 le barwetsana ban e ba
120_0319 o ne a sa phefumoloha
120_0320 le mphuthileng la mpontsha leratole
120_0322 k a lekanyetsang ka ho
120_0323 se ke wa ja pakeng
120_0324 ha ke eso ka ba
120_0325 delta air lines
120_0326 o ne o re o
120_0327 katse a se hlwella a
120_0328 sefahleho ka keketso kamehla o
120_0329 woto le komiti ya woto
120_0332 phutoloha ba na le matswalo
120_0334 thodisa se itsheleng ka meokgo
120_0340 ho ho ka ba le
120_0346 seven years war
120_0347 le ha e le hofe
120_0348 o a qhoma manana ngwananaya
120_0351 ho iphelela le ho e
120_0352 including best picture
120_0353 international film festival
120_0354 ne ke se ke dikelletse
120_0355 le ho tsamaelana ho hoholo
120_0357 le ho re ho be
120_0361 ke a ja ha ke
120_0364 le ne le bakwa ke
120_0366 ba le lmld ka ho
120_0370 e menyane le e meholo
120_0371 professional american football
120_0372 e ne e qaphaletswa ke
120_0373 graphical user interface
120_0374 ba se ba sebleletsa ho
120_0375 ba ho tsetelwa moruong le
120_0376 ho ne ho phomoseditswe ka
120_0377 o tjha ntshi ke ka
120_0380 ja o mo bolaisa ka
120_0382 ho hloleha ha dikamano dipakeng
120_0383 ho ba e lokileng le
120_0387 congo free state
120_0391 devan gar
120_0392 ba le dibotjhe mekotjana letsweleng
120_0393 baseball team based
120_0394 e ne e le moborigadiri
120_0395 e thabisitse kotopi torong eo
120_0396 ha a ya a lebile
120_0400 o hlanohetswe le ke bothabang
120_0401 ba ntjang direthe hommeng he
120_0403 le tlhoko ho fihlele o
120_0404 a be re sa di
120_0405 dikhompyuta le ho batlana le
120_0406 moketahadi ha di na motlohapele
120_0407 ho ka ba molemo ha
120_0408 american stage actors
120_0409 ke o tsibisa ho re
120_0410 ho re e be ke
120_0411 sutu e ntsho eo a
120_0412 re kwetletse lerumo ka kobong
120_0413 common law countries
120_0414 matona a robong ho etela
120_0415 swordfish antarctic toothfish and patagonian
120_0416 ho tekilwe tlhophisong ya ditsiane
120_0417 nthata o ka be o
120_0418 e le ho itshireletsa le
120_0419 o ne a ikemeseditse ho
120_0420 mean solar time
120_0421 ho ya ho thuseng ha
120_0422 ja monakaladi wa kobolelwa ho
120_0423 ka sepheo sa ho hlwaya
120_0425 dikerekeng mafung ba a eta
120_0426 lepotlapotla le ja podi ho
120_0427 le ha ho ne ho
120_0428 ba re e ne e
120_0429 ya ho se akaretse ba
120_0430 icd e ka laela ka
120_0431 empa o sebedisa mefuta le
120_0434 e rua le ha ho
120_0435 a ke ke a fuwa
120_0436 ne a llelang ha a
120_0437 malefetsane e motshwana lethisa kgaitsedi
120_0438 e ka suptjwa dipha ke
120_0439 ha kgutshwanyana ho ya ka
120_0441 paterone mokgabiso le kaheho ya
120_0442 purchasing power parity
120_0444 ka ba mabe le ho
120_0445 ho kenyeleditswe le tlhatlhobo le
120_0446 ke ye a se pholla
120_0447 botemengata le ho ba le
120_0449 ha ke se ke boletse
120_0450 kostsi le ke ke la
120_0452 golden globe award
120_0453 ya sekweta e felletsweng ke
120_0454 busetse lenyalo la rasello le
120_0455 ke se ke le mokaana
120_0456 re thuse ho sebetsana le
120_0458 ofisi ya motsamaisi wa masepala
120_0459 bo bottle ha a ka
120_0460 e ne e se bo
120_0461 di adilwe bomoloi ba ho
120_0462 ha ba ne ba nyalana
120_0464 bo be bo o timella
120_0465 john quincy adams
120_0466 ya bongata ba pedi borarong
120_0467 sontaha a leshwe ka ho
120_0468 a ka a ahlolelwa ditlolomolao
120_0470 le phallo ya kapetlele e
120_0473 e sa le wa motonanahadi
120_0474 le thabo e renang pelong
120_0475 o ne o ka bonafeela
120_0476 ho hasana le ho kgobokana
120_0477 e bopehileng le e radilweng
120_0478 ya tlotlontswe kgetho ya mantswe
120_0479 be a kwetlise le bakopi
120_0481 kengakayahao ponoyangakaya specialist e ke
120_0482 ya santa peterose e bontshitseng
120_0483 ba ha a se a
120_0484 pokello le ho lahlwa ha
120_0487 bo ntshuwang v ha ho
120_0488 kgotso le eo molekane wa
120_0489 ba ntsukobokobo ba ne ba
120_0491 a sa phomole o ne
120_0493 dithaka ka dithaka ke ya
120_0496 ba eleketeroniki ba se ba
120_0497 ho ne ho buuwa ka
120_0498 narrow gauge railways
120_0499 ba habo ngatane ramafothole le
120_0500 english common law
120_0502 lefiswa e qaqisitsweng ha e
120_0503 se ne se ahuwe ka
120_0506 setorouku ho ye ho hlokahale
120_0511 le qapodiso e kenelletseng ya
120_0512 dipampiring e ne e le
120_0516 le tahleho sekeng sa leilho
120_0517 supreme court decision
120_0518 hapeterose a ne a latole
120_0523 yonaka lebakala ho se tshepehe
120_0526 ha re ne re o
120_0527 sa ho iphedisa le ho
120_0528 phepompe ho na le dinutriente
120_0529 le thella ha a re
120_0530 oo o ka ikgethelang ka
120_0533 di ikarabella phumanong paballong le
120_0537 sefahlehosahao se edile o a
120_0538 ka tlhoko e be o
120_0539 ya ka nahanang ho mo
120_0541 ya phetolelo ya founu ya
120_0543 countries established diplomatic
120_0545 mmampodi kgwaolla ditswakotleng jm lenake
120_0548 boroko bo se bo iphile
120_0554 le ho thakgola ka pejana
120_0557 a b c d e
120_0559 ya khompyutha ha e le
120_0560 actual old content
120_0562 upstate new york
120_0565 fihlela qeto e itseng pheletsong
120_0568 municipal infrastructure grant ka ho
120_0570 international atomic energy
120_0575 re sitele jehova ho rapela
120_0579 e le ho maloro a
120_0580 v v v v ha
120_0581 ditjhabeng lehlanahlana ke la motimahlaha
120_0583 professional sports teams
120_0585 mekgatlo eo eseng ya mmuso
120_0586 ho se tsotellwe ho se
120_0587 podumo ya moemanotshi ya ba
120_0589 ha o sa di hlokomele
120_0591 ba di emelang baemedi ba
120_0592 wa kgwedi le kgwedi o
120_0595 okosejene o ke ke wa
120_0596 ho kenyeleditse le tekanyetso e
120_0597 lokolla le ho re ho
120_0598 di se o tshwenye o
120_0599 le kgaphatseha ho setloholo sa
120_0600 tshimolohong o tsebile e sa
120_0602 los angeles area
120_0603 se lebelletsweng k h r
120_0607 ka ho tsuba boikwetliso le
120_0608 ho hlahloba le ho ntjhafatsa
120_0610 wa se ke wa ba
120_0611 a se hatoha a se
120_0616 ha e le ho rothisa
120_0617 le se tshohane le re
120_0618 ka ho sisinyeha ho hosesane
120_0619 le be le ditsebo le
120_0620 ha e ba le tlokotsi
120_0622 le ho tsetela le meruo
120_0623 le diqhwaha le dipudumo ho
120_0624 ne e opa a nyokgoloha
120_0625 ke advocate le ha ho
120_0627 le ho lwantshana le botlokotsebe
120_0630 o ne a boetseatshwerwe ke
120_0634 chicago white sox
120_0635 ka letsholo la ho baballa
120_0638 alwana ya kgumamela ka ha
120_0639 okametseng a ka hokela taelong
120_0640 le ho mo qhobella majwe
120_0641 booki di lefelletswe kemosuwehlooho tsholo
120_0643 tatello le karabelo phehella ho
120_0644 di romeletswe ka thelefekse di
120_0645 ke maranran g a fepelang
120_0646 wa ho tokafatsa bo tlokotsebe
120_0647 british overseas territory
120_0648 le dintwa vmme e ne
120_0651 o tswile kotsi e mpe
120_0652 dikgaolo le ho re hlahisetsa
120_0653 largest ethnic group
120_0655 roud ya wto re kgodisehile
120_0656 motjekong bashemane re ne re
120_0658 ka sekotlong sa phakiso le
120_0659 di anti retroviral le ya
120_0660 kgutle a tulatula moriana oo
120_0661 re e hlaolele re sietswe
120_0662 efatshe wa rakebi selemong se
120_0667 se ne se hlabehile habohloko
120_0668 e ne e le nonyana
120_0669 le bonase ya kheshe eo
120_0671 lelapeng ho ka ba le
120_0672 molamu o kopane le tshepe
120_0673 ka ha o se o
120_0674 oo ho ne ho le
120_0675 badan pusat statistik
120_0677 di sa fohlwa o a
120_0679 le talente le ho ba
120_0680 re phahamisitswe ke ho kgwathwa
120_0685 le be le mo dikelle
120_0686 kgothaletso ya boikgwantlello le ho
120_0687 ke ba arolelanametsi a yonale
120_0689 ho na le letamo le
120_0690 ho ya ka mosebettsi wa
120_0692 di le matlapa di thella
120_0693 screen actors guild
120_0694 ho ka iteanngwa le ba
120_0695 bo bo lelele le bo
120_0696 ke ngongorehe ka ha ke
120_0697 ludwig von mises
120_0698 ho ja papa ya lephotho
120_0699 o ne a sa suthe
120_0700 mohloki ya kgesehang kgutsana le
120_0703 european union le ahile diphaposi
120_0704 wa ho lahlwa ha dikgwerekgwere
120_0705 supreme court ruled
120_0706 le phehiso e tlotlehang malepeng
120_0707 tsabona metseditoropong ho na le
120_0708 mo hlahetseng mo romelle karete
120_0709 khomishene e ikemetseng ya dikgetho
120_0711 samina o imme ya nyarosa
120_0712 boikutlo ba ho tshepana pakeng
120_0713 ho ba le rejistara e
120_0714 wa boitokisetso le meralo ya
120_0715 bowatla ka ho mo letsetsa
120_0717 o ne a kgabelletswe ka
120_0718 ya projekte le kananelong e
120_0719 wa ho hlwekisetsa bommisisi dijarete
120_0721 mongata e le wa dijareteng
120_0722 ho ya ka makgoro le
120_0723 science fiction convention
120_0724 se tshwasang dihlapi ke sekepe
120_0725 be ba se ba ho
120_0726 d e le f ba
120_0727 american football conference
120_0728 ba le pin ya ho
120_0729 international labour organization
120_0730 onelopele ya tjhata ya ho
120_0731 burundi comoros sudan haolo ho
120_0732 a hamme e tswele le
120_0733 le be le dikele na
120_0734 gibbs free energy
120_0735 ne a se a le
120_0736 ha o ya ho e
120_0737 a ne a le bodutunyana
120_0738 ka sms sms benefit lookup
120_0740 balaodi le bahlakisi ba dibuka
120_0741 majwala a le tshosa ka
120_0742 ba matha ka dinkgo ho
120_0743 late eighteenth century
120_0745 hloko o nto araba dipotso
120_0746 ba ya phasaphasa e tjhaile
120_0747 o ne a ikane pontsheng
120_0748 madison square garden
120_0749 ho fopha ho sututsa ho
120_0750 ke kalafo e sa fellang
120_0751 se ne se na le
120_0752 ha ke re re le
120_0753 le sa le lelelele ka
120_0754 e yeng e be ya
120_0755 ho re moreneng ho hlahile
120_0756 a qela holeoto o ne
120_0757 na le tokelo ya ho
120_0758 basebetsimmohomemorantamo ka tlhokomediso ya ho
120_0759 saenneng wili ya sethato ha
120_0760 ka ke ne ke le
120_0762 tlamehang ho ho ya ka
120_0764 ha ke e hloke le
120_0766 matsete a bee a thekiso
120_0768 ha o na thaere eo
120_0769 re hoetsahetse kgoba e se
120_0770 le ho phutho llwa ka
120_0771 e lwanela ho ya ho
120_0774 ke tshwantshiso athe c ke
120_0775 ba ho thibana ha methapo
120_0776 oo le ka o tshepang
120_0778 ke ya medupe e sa
120_0779 ba ka tshepjwang le ba
120_0780 hot chili peppers
120_0781 ya dithaere ke paballo ya
120_0782 e be ho ba le
120_0784 ka ha ho nahannwe temaneng
120_0785 ba le sa yonajwalo ka
120_0786 ba neng ba ntse ba
120_0787 united states census
120_0788 labahlankana ba akgang bomoferefere ikele
120_0790 boiqapelo ya mefutafuta e batsi
120_0791 be e o jesetse kgwebeleng
120_0792 o ka nketsang ha e
120_0795 best supporting actor
120_0796 international civil aviation
120_0798 ya cbnrm e fapane le
120_0799 e ne e re e
120_0800 ka ha e a kgotsosofala
120_0801 ho tsoseletsa selekane se setjha
120_0802 o sa tebang ka ha
120_0803 maqwetha diadvokheiti diakhaontente le bahlakisi
120_0804 a se kgwatha senare sa
120_0805 a ka lekeha ya ba
120_0806 ho ya ka bokgeleke le
120_0807 a le monyebe ho ka
120_0808 c le d ka ho
120_0809 a se a tsofetse a
120_0810 paseditseng botitjhere le kereiti eo
120_0811 re ba sa lebeletse a
120_0812 eo o se fihlelletse ditatemente
120_0813 bo rarolohe bo rarana le
120_0814 ha a tshwanelwa ke ho
120_0815 e sa le elwa wa
120_0816 ne a sa ratelereko o
120_0817 a re mofifi ke saletswe
120_0818 mines occupational diseases database samodd
120_0819 e ne e le phatswa
120_0820 di radileng ho ke ke
120_0821 ha di se di tshwailwe
120_0822 maholwanyane e be a kolokiswa
120_0823 le ofisi ya motsamaisi wa
120_0824 ba re ha ba sa
120_0825 best adapted screenplay
120_0826 poho ya mmofu e kgonya
120_0827 narrow gauge railway
120_0828 ha se monwana ha le
120_0829 kansas city royals
120_0832 molatswana o phallang lesodi o
120_0833 a ka e fetisetsang ho
120_0834 e le mampodi wa teransefala
120_0835 a dube thankga a be
120_0836 na mosadi ha e le
120_0837 amo kodisa a be a
120_0838 ho tswa thothokisong e botsi
120_0839 mario kart ds
120_0840 potlakile le ha re sa
120_0841 republican party united
120_0842 sa lakesense ya kgaso ya
120_0845 ha a reteleha a re
120_0846 le thope e tshehlana eo
120_0847 ha ho sa kgonwe ho
120_0848 bo naka di maripa ka
120_0849 le ha ho lejwalo mekgwaena
120_0850 le ntjhotjho ke ba sebetsanang
120_0851 di loke ho ya ka
120_0852 bo botle le polokeho merafong
120_0853 ba ne ba mo kgalemelletse
120_0854 ho ikitlaetsa le ho ba
120_0856 entered world war
120_0857 national historic persons
120_0858 ka ba ba ho se
120_0860 la tswekere le mahloko a
120_0862 share capital di tiisetswe ke
120_0863 ao a ka tobanang le
120_0864 le tsepameng nlheng ya ponelopele
120_0865 eo se e thonyeditsweng e
120_0866 lenaneo la ho pepa le
120_0867 ha ba qhekelle ha ba
120_0868 ke ha ba nwabeleditse ba
120_0869 mokgutshwanyane o mo tsalang disanthao
120_0870 provenseng eo ha ho se
120_0871 e le le etelletseng tlhaselo
120_0872 moelelo sekaseka le ho hlalosa
120_0875 states presidential candidates
120_0876 ka ho ya ka le
120_0877 o se a theohile a
120_0878 o e fetolele ho lekgathe
120_0879 tshekatsheko ya hae e paka
120_0880 ba se ke ba di
120_0881 lofe a ka hlolehang ho
120_0882 paleng ee o ka re
120_0883 sehlahla ke phetho ke tu
120_0884 hard disk drives
120_0885 le leamanyi o be o
120_0886 ke ho kgahlisa baditjhaba ka
120_0887 e le wa semanyamanyane o
120_0888 ho se ho le tjena
120_0889 union member states
120_0891 ho underwriter ho ya ka
120_0892 ho thuswa ho netefatsa ntlafatso
120_0893 ba le utswe ba le
120_0894 eo o ka e tsamaisang
120_0895 indian national congress
120_0896 re le ha e le
120_0897 seo ke lekang ho se
120_0898 mofu a sa siya molekane
120_0899 ha o na le dimakasine
120_0900 e hlwekileng e bileng e
120_0901 le ka kgethwang e ka
120_0902 le maikarabelo a ho kgothaletsa
120_0903 a lokolletse dikweta a kwalletse
120_0905 a se hloleabeha lebatha la
120_0906 ne re re kiai ka
120_0907 o ne a tlamehile ho
120_0909 ka ha ho phehelletswe ho
120_0910 a fe kap a fe
120_0911 le thupelo ya tlatsetso ya
120_0912 o ba kentseng projekeng ya
121_0001 le ho arolelwa ka ho
121_0002 ho ba boimanyana ho le
121_0003 a ferekane a sa itsebe
121_0005 a sa utlwusise ho re
121_0006 le mosebetsi wa profeshenale wa
121_0010 ka mantaha laboraro le ka
121_0013 a theohe koloing eo ya
121_0016 la haeka nakoeo e le
121_0017 le akgele ka sefutho sa
121_0019 mabophe ba ne ba emeletse
121_0020 ho khanseling ya borutehi le
121_0022 new england patriots
121_0023 high middle ages
121_0024 he ke se ke le
121_0025 ha ba hlajiwe ke dihloong
121_0027 wa nomora ditlhokomediso le ditemoso
121_0028 ha ke ne ke le
121_0029 ha a ka kgaotsa ho
121_0031 etsuwa ka ho ya ka
121_0032 ka ha ba ne ba
121_0033 ke ne ke le bothateng
121_0034 martin van buren
121_0036 qoqwa ho a tshehwa ho
121_0037 o se ke wa be
121_0038 t o rekile senomaphodi ledikuku
121_0039 melongwana e tshasitsweng kaletshwana le
121_0040 makgoweng ho ya ntshetsatshebetso ya
121_0042 wa dithako ke hohloka a
121_0047 ba re ba tlosa letshweya
121_0049 o be o sisinye ditlhahiso
121_0051 ha mokomeshenara wa dikano a
121_0052 great leap forward
121_0053 e re ha a se
121_0054 western european countries
121_0057 e kengwe setempe e be
121_0060 hothwe ke lenqosa le o
121_0061 ya o rekisetsang pholisi pholisi
121_0062 se a sa ba tshepe
121_0063 ha o se o phethetse
121_0065 e ya e honyela o
121_0066 se ho phahlwa ho phothasela
121_0067 re ha ke mametse pina
121_0068 modulasetulo le motlatsi wa modulasetulo
121_0070 ka ho otloloha lenanetataisong la
121_0071 magauta e se e le
121_0072 ka kaho ya institjhushene le
121_0075 mabitso a dibaka la afrika
121_0076 le seroto se sa ribollweng
121_0077 ke re ke moihlwe ho
121_0078 best supporting actress
121_0079 wa tlhware ha di lome
121_0080 se le hopotse ho ya
121_0081 id le ya tshupiso ya
121_0082 karolwana e ntshitsweng koranteng jj
121_0085 african union member
121_0086 republican national convention
121_0090 ho teba le ho tsepama
121_0092 phemiti ya ho romela hlapi
121_0093 ke ke a kgona ho
121_0094 joyene e fedileng ha a
121_0095 kaha ho kgaoha ha botho
121_0097 dutch east india
121_0098 isitsweng ho bafetoledi ba poraefete
121_0100 ho le leratanyana le thibang
121_0101 waseithati ya tshepileng ho itshwarela
121_0102 o nwele mahe ha a
121_0103 a tiisa ke a hlapanya
121_0104 lomahantse meno ha ke re
121_0107 ruburiki eo o e fuweng
121_0108 moputswa sa masumu wa dithako
121_0109 ha ho ya emellwang ka
121_0111 ho saena maqephe ohle a
121_0113 pope gregory
121_0116 ho ba le kemedi e
121_0118 united nations security
121_0121 a tlohe tekenikonong ya witwatersrand
121_0122 se e le holofala ya
121_0124 ho buella setlokotsebe see sa
121_0125 e ne e le moqebelo
121_0126 random variable
121_0127 a mesebetsi e ngolwang potefoliyo
121_0128 e utlwahale ha e bope
121_0129 na le tjheseho ya ho
121_0130 a fumanang mohlahlabuwa a arabile
121_0131 e be e o jesetse
121_0135 a ya lengotswaneng lehaufi a
121_0136 ba buisane le ba ha
121_0138 diselefounu di nolofaletsa ba di
121_0140 barekisi ba dikoranta ke ha
121_0141 religious organizations established
121_0143 video game console
121_0145 ba banyenyane a re psa
121_0146 se ke ke sa o
121_0147 o tletlebe o be o
121_0149 di loketse bomang ba dilemo
121_0150 mo fa matl a fe
121_0151 mooki tliliniking e ka marantha
121_0153 na le leqai le ka
121_0154 e o phehise hlama ka
121_0155 academy award nomination
121_0156 e methwang ka dimetara e
121_0157 soma leho nyefola se sa
121_0160 junior high school
121_0162 buswa le ho laolwa ke
121_0165 thajana ya mapungubwe kamorao ho
121_0166 ya ho itshebetsa le ho
121_0167 re se re tsebiswa ka
121_0168 butle ka ho betsa ka
121_0170 ao a ho tshoswa ka
121_0171 ho ka ikopangwa le iucn
121_0172 mokoena akhaonto ya polokelo ya
121_0173 f a ka laelwa ho
121_0174 mohlakeng e ne e le
121_0175 hlwahlwa tjhebelopele le pono e
121_0176 mopresidente mandela o ne a
121_0177 humid continental climate
121_0178 o re o tshwenyana le
121_0179 pope paul
121_0180 e ke ke ya leshwa
121_0181 silika e be ho ba
121_0182 o be o a sebedise
121_0184 e kojwa e sa le
121_0185 le ho se be le
121_0187 ba neba e buela sekgukgung
121_0188 bo ne bo methwe ke
121_0190 orbital angular momentum
121_0194 se thwasang se ke ke
121_0195 a akgetse setipana sesesweu sa
121_0199 ka booker t big show
121_0200 ya boqapi e a nehelwa
121_0201 o a haella ba ke
121_0202 ha a se a bitsitswe
121_0203 kahong ya maitemohelo thekenoloje le
121_0204 moshweshwe moshwashwaila ya e ba
121_0205 o a tshabeha e sa
121_0206 e teletsana ho e henahena
121_0207 ya boitjhoriso ba ne ba
121_0208 international monetary fund le ditheo
121_0209 jo ke eo a kwala
121_0210 eo ke e labalabelang ha
121_0211 phetoho phedisanong ya semelo le
121_0212 o tshwanetse ho ba le
121_0213 le ho tshireletsa baletsaphala le
121_0214 atlantic slave trade
121_0215 e tshetse seturupu se se
121_0216 ho ka ba le ngangisano
121_0218 se angwe ke dikokwanyana lediphoofolo
121_0219 of sa hpcsa e sa
121_0220 phephetso eo re tjamelaneng le
121_0221 ba ke ke ba timelwa
121_0222 le o sisintseng o ka
121_0223 national geographic society
121_0225 ya boqwetha e a roropa
121_0226 e fosahetse athe ya bobedi
121_0230 ha re a tleha ho
121_0231 hodima a se a re
121_0232 na mosadimoholo o ne a
121_0233 boramapolasi ba ntseng ba hola
121_0234 be ke le hlokela tlhompho
121_0235 ba re le dipampiring e
121_0236 ha monna a mo elelliswa
121_0237 ba lahlehileng e ya weposaeteng
121_0238 ditholo le difofu ho bakileng
121_0239 american nobel laureates
121_0240 ka la moshweshwe moshwashwaila ya
121_0241 phamokate din a le ketsahalo
121_0242 cite book author
121_0244 i e tsolo le qumbu
121_0245 ka ho teneha na ke
121_0246 moemanotshi ya ba kabelwamanong ka
121_0247 hehehe ha ke ne ke
121_0248 bomasepala ba lehae le ba
121_0249 qholotsanwa ditjhaba di telela le
121_0250 phahla pinyane ere ka ha
121_0251 ho na le tshabo ha
121_0252 e sa le a fula
121_0253 ba ne ba ka qoqaqoqa
121_0254 na ha o se o
121_0255 ka thotsela sa mmedikane ke
121_0256 ka e ne e re
121_0257 ke be ke le hlokela
121_0258 ne a ikemeseditse ho mo
121_0259 e foofo feela e batla
121_0261 mahlomola boo ke ntseng ke
121_0262 o ne o le o
121_0263 kobontle ya ho apolwa e
121_0264 e se e bolailwe kematetetso
121_0265 thunngwa sephakeng a ba a
121_0266 dihlotshwana tsefapafapaneng ho ya ka
121_0267 porafete ho ka ipehwa ho
121_0268 o ke ke wa finyella
121_0269 ke ke ra swabela ho
121_0270 ba re rommeng ho a
121_0271 ka ncs batlolamolao ba hlahlobilweng
121_0272 ha ke re ho ye
121_0273 e ne e se lefitshwana
121_0274 ya kgakollo ha e nkele
121_0275 scottish national party
121_0276 o mo kgothatse le ho
121_0277 le ha e le sefe
121_0278 a jwetswa o bonwa ka
121_0279 ha ke o tlele ka
121_0280 ke se ke le ntshitse
121_0281 a bofubedu bo botala bo
121_0282 mobung oo ba o kopanetseng
121_0283 centrally planned economy
121_0284 hakatsa bahlabani le ho tshosa
121_0285 ya diteropo urban renewal plan
121_0286 ha e lelefapha lathuto le
121_0287 re ne re ka ya
121_0288 e labalabelwang ya lerato ya
121_0289 puo e bontshang ho ba
121_0290 moteaphala o thontswe ho ba
121_0291 fatshemoo sa mo hulela ho
121_0292 sci fi channel
121_0293 o hlahlathela felleng o le
121_0294 a re bolella le mahlabisadihlong
121_0295 a na le phekiti ya
121_0296 ho fanwa ka sona ka
121_0297 ha o ka wa ja
121_0299 a be le thahasello ya
121_0300 national inventors hall
121_0301 be ke tsosa dibata masene
121_0304 ha a ne a lwanne
121_0305 le ho kenngwa tshebetsong ha
121_0306 ha ho na le ditletlebo
121_0307 mathobisa ho ka hloma paki
121_0308 ka tsebiso ya koranta ya
121_0309 o itlama ho se behe
121_0310 tempuweng le ho saenwa ke
121_0311 ba ho re rakgwebo a
121_0312 ha ho na ka moo
121_0313 ya sebele ka puisano le
121_0314 ka motes wa bahlomphehi wa
121_0315 ba be le tjantjello ya
121_0316 tb e ne e sa
121_0321 ford motor company
121_0322 ya taelo ya tshireletso ya
121_0323 romelwa ka poso e rejistarilweng
121_0324 united states president
121_0325 puong ya lapeng ho ya
121_0326 thabele manyofonyo ao o a
121_0327 kgolo la puso ya gauteng
121_0328 wa tleliniki ho o fa
121_0329 re a amohetseng a re
121_0330 modula le ho diehisa ho
121_0332 manager ka ho ya ka
121_0334 mongodi o nahanisisa ntlha e
121_0335 qhoba bosiunyana bo le bongnyana
121_0336 le ho hlekefetswa meyeng maikutlong
121_0337 sela meqomong a be a
121_0338 a nkilwe ka boinahanelo ba
121_0339 di lese ho ipapatsa ha
121_0340 ho lekane ke ne ke
121_0341 yaba o a thola ho
121_0342 fekese ha ho se ditefiso
121_0343 di ka fihlelwa ka ho
121_0344 e le le molemong wa
121_0345 tsemashome a robedi ba sebetsahoba
121_0346 ha holoholo ha ho e
121_0347 e se e le mesuwe
121_0348 sa d ha e ba
121_0349 ya mophedisuwa e tlatsitsweng foromong
121_0351 ho mohlape wa ho tswadisa
121_0352 ba ka o ja o
121_0354 ka kgang ka ho le
121_0355 ha ho so ka ho
121_0356 le ha ba e na
121_0357 e le ha o itshola
121_0358 bolauwe ka sehloho lebakabaka ke
121_0359 ho ne ho se ka
121_0360 ha le ne le sa
121_0361 ke nku ha a lle
121_0362 o se o hlahisitswebakeng sa
121_0363 re ke mo letele ke
121_0364 o se a mo kgorohela
121_0365 sa ntome le ho ntoma
121_0366 ba ne ba phethelwa ditshomo
121_0367 e kgolohadi le e bolokilweng
121_0369 theho ikgapela setjwaba ka ho
121_0370 robetse mealong ha o sa
121_0371 ba bararo ba ka pakang
121_0372 a re ho ya ka
121_0373 american television actors
121_0374 ya behwang setulong kajeno ke
121_0375 eo a siyang a e
121_0376 di ka sibollwa ka ho
121_0378 ne ba re o thothela
121_0379 fetohile ha ba bohading ba
121_0380 ha a ne a kudiswa
121_0381 o ne o se turu
121_0382 ka ho fetesisa ke ya
121_0383 roman catholic archbishops
121_0385 he a tlelwa ke ho
121_0386 ke ba phethisang ditshepiso ba
121_0387 a futhumetseng ho tola ka
121_0388 new south wales
121_0389 ka tlung eo le e
121_0390 a be a sa phethise
121_0391 b e ka fetisetsa ho
121_0392 na le letamo le tebileng
121_0394 art deco buildings
121_0395 o bolokolohing ba ho ho
121_0397 dineo na o ne o
121_0398 ho buisana le diphehisano ka
122_0001 ha ke no tswafa ho
122_0003 a ne a ka o
122_0004 monka ka bethe eo a
122_0005 ya sa lleng o shwela
122_0006 sa atise ho ba ya
122_0008 e re ka ha ho
122_0009 o e tatetseng e ka
122_0010 o re le ha ho
122_0011 baahi ba metse ba ka
122_0012 sa merero ya phetiso le
122_0014 se a e na le
122_0015 ke ne ke sisinya ho
122_0018 ba sa bolayane ba a
122_0021 thiba a ba a mo
122_0022 ho nyamela ha dimela le
122_0027 native american tribes
122_0028 ho se itshepe ha a
122_0029 le mokopi eo ha ho
122_0030 leqheku ho tsofala le ratang
122_0031 ya mekete ke ne ke
122_0032 o re na modimo o
122_0033 nkwa e rometswe ha e
122_0034 a ne a le bodutu
122_0036 ke ha re sa mo
122_0037 yellowstone national park
122_0038 ya tshitwe le ne le
122_0039 be le social worker ya
122_0040 se se se qhaphaleditswe ke
122_0041 ha ho se ya e
122_0042 tswelopele ba re a dumellwe
122_0043 mo hlekefeditse ka thobalano a
122_0044 e sa phutoloha ba na
122_0045 maele a mangata a na
122_0046 di le tala di le
122_0048 ya mahlaku ho ya ho
122_0049 ha ke re o sa
122_0050 le dibukana ha di na
122_0051 lesira le le pudutswana la
122_0052 a simolla ho nona mohaditsong
122_0053 anke joyene ya dilemonyana e
122_0055 sebo peho ka b o
122_0056 ne a re monokotshwai ha
122_0057 bra t o rekile senomaphodi
122_0059 ne a mo ja tsome
122_0060 ya o a se kgitla
122_0061 o sokolotswe le ha ho
122_0063 ba batsho ba ne ba
122_0064 le ho se tsotelle ha
122_0066 etswe le ditsebi di a
122_0068 main sequence stars
122_0069 e o tsieditse e o
122_0071 batsi a mesebetsi e ngolwang
122_0073 bafu le dumellang ho patwa
122_0074 boikamanyo e se e behang
122_0075 united states armed
122_0077 test ban treaty
122_0078 sereledi a phoqeha ha a
122_0079 hloohongabaa re sihla a mo
122_0080 ba badudi ba saruri ba
122_0082 phetho ke tu le ha
122_0083 ba ne ba loha leqheka
122_0084 le ho nyediswa ke dirathana
122_0086 roba dipelo he moradia lebajwa
122_0087 ho kgohlela ho sa feleng
122_0088 le ha ebe ha o
122_0090 a re ke mehlehlo ya
122_0091 ho ba lebella le ho
122_0092 ho nehwa tlotla e mo
122_0093 articles containing proofs
122_0094 o mofubedu o phatsimang le
122_0095 di botse e ya kae
122_0097 o sa ye ngakeng o
122_0098 sa yang kerekeng e le
122_0102 la ho pepa le eteletswe
122_0103 mothendari a ka phumola ho
122_0104 e le ho utulla le
122_0105 a absa fnb nedbank a
122_0106 ne ba bonesaka ho besa
122_0108 hlophiswe le ho hasanngwa ho
122_0109 ho ntjwetsa dife na jwale
122_0110 ho ingamangama ke le bule
122_0111 nkgolwe ha ke re ke
122_0113 di na le ho hlopha
122_0114 le boyeneng a hlaheletse ka
122_0115 ya ho thaotha le ho
122_0116 le tikoloho eo ba phelang
122_0118 eo o e kolotwang ho
122_0120 ke kodua ya masetladibete ee
122_0121 o bopilweng ka bokgabane le
122_0122 ke lehe ha o rwale
122_0123 nthakemo eo re buileng ka
122_0124 emetsefeela ho re diphala di
122_0125 ka o fasebaka ho dumedisa
122_0126 ditjaka a sa jese thweetsana
122_0127 ho ya ka moenjenere ya
122_0128 leihlo le fahlwa le shebile
122_0129 susumeditse borakgwebo ho bula dimmotjhara
122_0130 o foseditseng ha ho ka
122_0132 ha di eme di botse
122_0133 ho ya di fa bomabalane
122_0134 mose wane ho meedi ya
122_0135 eo ba e balang ba
122_0138 million metric tons
122_0139 e laeleditsweng e se e
122_0141 le le ka marung ke
122_0143 fala lekoko la pholo eo
122_0146 ya ac jordan e bitswang
122_0149 e mong le e mong
122_0150 basadibaholo ba ne ba lomahantse
122_0152 ho be le lesoba lebitleng
122_0153 million years old
122_0154 morenengha ho etellwa morenapele mohlomongha
122_0155 ho ke ke h a
122_0156 itshwarisa be ke ikwalle ho
122_0157 le ho epolla bokahodimo bo
122_0158 romellwa melaetsa e mo hlekefetsang
122_0159 le ha boraditaba masedinyana dithelebishene
122_0160 thotwana ho ngala ho thoba
122_0161 motjhine o ne o se
122_0162 e lokelwang ho tshohlwa ke
122_0164 la monnae lebaqolotsi o ne
122_0165 ho kenela dikonteraka ho ka
122_0166 ha o no tlohelwa ho
122_0167 maipato e ne e le
122_0168 beehetswe ka thokobakeng sa ho
122_0169 horizontal gene transfer
122_0170 ba kgarume ba be ba
122_0171 le re fihlise re bolokehile
122_0174 ha re re re qhwaolla
122_0175 mario kart
122_0177 ho rora ha helikopotara e
122_0178 rera ho mmolaya ka ha
122_0179 profeshenale wa bonono ba tshwanelhileng
122_0180 la boeletsi ba kadimo ya
122_0181 ne e kenyelleditswe ho ba
122_0182 le kgothalletse boinehelo le boikitlaetso
122_0183 lokelang ho hlahiswa ke baithuti
122_0185 idimola kgafetsakgafetsa e le mopoto
122_0186 e ne e se ho
122_0187 formal diplomatic relations
122_0188 carnegie mellon university
122_0189 e a behelwa ho o
122_0190 le malwetse a sa feleng
122_0191 ne ke sa re ha
122_0192 le lesoba le lenyenyane ka
122_0193 a mo laimela a mo
122_0194 a re o ikgutlisetsa o
122_0195 ka dikotlolo ha le ina
122_0196 ba bamemuwa makhing wa bahlomphehi
122_0197 se kgethollang makasineng se bolele
122_0198 ya ho tshwasa dihlapi o
122_0199 kgutshwane bahlahlobi ba lekodisise hantle
122_0200 e ne e le polokwe
122_0201 a re phephisa boholong ba
122_0202 ka boikemelo e sa itshetleha
122_0203 ho se hlalosahobane bonneteng ha
122_0204 monga mobu a ka ya
122_0206 primitive recursive functions
122_0207 early iron age
122_0208 di springbok ka ho ba
122_0209 e ne e le seqhenqha
122_0210 ya turfloop mekete ya ho
122_0211 ben nene o amohetse kgau
122_0212 o ke ke wa kgolwa
122_0213 e boetsa e na le
122_0214 o se a e kgwathile
122_0215 e sa tsamaelaneng le ditshwanelo
122_0216 ba se ba saletsweke dikgwedi
122_0219 o kgotsofale ho re lepolesa
122_0220 eoya ka a ko mpolelle
122_0221 o ke ke wa etsiswa
122_0222 ho ingodisa sedikeng sa ho
122_0223 fundamental physics concepts
122_0224 ho oo ho fellwang ho
122_0225 ho totobatsa ditso le dikamano
122_0226 nnyeonyeo o bitsa lebitso la
122_0227 mahlale le theknoloji ho ka
122_0230 operation iraqi freedom
122_0231 se ka susumetsang babadi ho
122_0232 na bontate ba dumelletswe ho
122_0234 ka lengope kgidi ya boi
122_0235 ho ya ka hlokwana la
122_0237 jewish american writers
122_0238 ha di a tshehetswa ho
122_0239 ka eo le re qhoshetsang
122_0241 ba ke ba ba ithaopela
122_0242 ne re ya ka nnqeng
122_0243 ho e maha reng e
122_0244 wa yunivesithi le molemong wa
122_0245 a tsweretse mahlo ao bofubedu
122_0246 e a apesitse ho phema
122_0247 ya pdf ya phr e
122_0249 narrow gauge lines
122_0251 a se a le phomolong
122_0252 boikutlo boiketlo le ho o
122_0254 o na le tokelo ya
122_0255 le tsietsing e tshabehang ha
122_0257 felehetswe ke tjheletana ya ho
122_0258 o se ke wa latella
122_0259 ne ho ithabiswa ka metjeko
122_0261 e bapetsweng ke mopresidente wa
122_0264 ya ho tshwarelwa ho leswe
122_0265 a sa topalla boikutlwahatsong ba
122_0266 ho kgutleha hlakoreng la methepa
122_0267 e di boletseng e sa
122_0268 ha a a hlakelwa ke
122_0269 la bataung traders qwaqwa ke
122_0270 ngwanangwanake o tswere ya ditswere
122_0271 ho se ke ha lwanwa
122_0272 di ba arola ho ya
122_0273 ha a le d e
122_0275 metara o fumanwa o sa
122_0277 clarify date march
122_0278 ka kotlo difaene le dikotlo
122_0279 ho kgalengwa re ke ke
122_0280 be o tshetswe ke bannga
122_0281 ya ho suthiswa ha baipehi
122_0284 green bay packers
122_0285 iv ka ho hokela ka
122_0287 o ka ya itefela wa
122_0288 wa matona a robong ho
122_0289 le babokelli ba ngodisitsweng ba
122_0290 ke kgitlehang dibete ke boitshwaronyana
122_0291 metsikapa e mo shapang ho
122_0292 o e so ka ba
122_0293 great rift valley
122_0294 ya seterata sa setoro sa
122_0295 ho to kafatsa bot lokotsebe
122_0296 ho mmona ha ba se
122_0298 a hauhelwe a fuwemosebetsi o
122_0299 ho ya ka temana ya
122_0300 tb di ka ba le
122_0301 a fe mmamolete phiyo e
122_0302 e ne e le mokgashane
122_0303 personal income tax
122_0304 ya palohare e ne e
122_0305 la kgiro haeba o le
122_0306 di lokisitswe ha ho balwa
122_0307 wa ntsholela hanghang o re
122_0308 o totobale e be wa
122_0309 le melemo e tlisitsweng ke
122_0310 ke ke tsalefuwa gemskemorerowathusoyabongakaoreretswengbasebeletsi ba
122_0311 ke ho se lekalekane ha
122_0312 ba silela motoho kalona a
122_0314 le ho otlwa e le
122_0315 sa bollang ha a qhaleha
122_0316 ha ho na le dikgaello
122_0317 ke ne ke re ha
122_0318 le ho se di apare
122_0319 o ne a itjele ka
122_0320 ya tlhalo ba romele afidaviti
122_0321 clarify date december
122_0322 di ne di mo hopotsa
122_0323 phetelo o pheta pale ka
122_0324 asiti dipi sebolaya dikokonyana le
122_0326 yeo re ka e fang
122_0328 a dipudulwana a dimenerale ho
122_0329 le boye mokubetso le ha
122_0330 ha e utlwahale ha e
122_0332 a tshwaetsang a tsamaiswang kedijo
122_0333 ngwanaenwa a nthuta ho fina
122_0334 le dithelevisheneng ho ne ho
122_0335 se ke ke sa kodumela
122_0336 ho ba mokgwatshebetso o phatlalladitsweng
122_0338 ka ho ba le dikgothaletso
122_0339 jorge luis borges
122_0340 aphela o photjhotse ha e
122_0341 sehollake a motsholele maqa a
122_0343 ho lebisitseng ho sebedisweng ha
122_0345 ka moahi wa joburg ho
122_0348 ba foromelang ditene nokengya kgopjane
122_0349 se hlokwang ke baunamolemo le
122_0350 o re ho etsahalang hantlentle
122_0351 tlositswe setulong sa botshepehi ka
122_0352 dihlahiswa non proliferation status of
122_0353 pheko ke mosotli wa meya
122_0356 le e batlang e nepahetse
122_0360 bokgabo botebo le ho tsepama
122_0362 ke ka mo hlala ke
122_0363 le sa hlahelle lenaneng la
122_0364 ke ho re a se
122_0365 be a di hlatswe a
122_0366 moshemane a re kapelong le
122_0367 p na ho na le
122_0368 tsepamisetsa ho faneng ka ho
122_0370 ne ba sa tshabe ho
122_0371 ba ka e nkang ha
122_0373 wa pota ke tebello eo
122_0374 a totobala o ba le
122_0375 ka bonamo bo akaratsang ba
122_0376 wa phetelo o pheta pale
122_0377 phokotso ho fanyehwa le ho
122_0378 ke ke wa keketeha ha
122_0379 kamohelo ya ho thonngwa le
122_0380 ya fokolang ya dulang sebakeng
122_0381 bo ma hareng ba ho
122_0382 petroleum exporting countries
122_0383 le bontshitshweng setshwantshong se ka
122_0384 re a se bonye le
122_0385 a be le yunifomo eo
122_0386 ba re ke please call
122_0387 e molemohadi ya ho theola
122_0388 tsitsitseng ya ekonomi ka ho
122_0390 mpehile merebele e le ka
122_0392 rugby world cup
122_0393 ka ha ho e na
122_0394 le wa makgowa o itshasa
122_0395 a qotsitsweng a ne a
122_0396 ho ba ka ncop ke
122_0400 se o lokile ba crime
122_0401 me e be lengolong le
122_0402 ne ke sa e hlalohanye
122_0403 a se ke a ikutlwusisa
122_0404 o ne a itulela hahabo
122_0406 ba batsho le ba basweu
122_0407 a koduwa eo e nyarositseng
122_0408 di jehang ba kgonang ho
122_0409 e ba o se ke
122_0410 sulafalletswe le ho ja ho
122_0411 mmotsa a re o ne
122_0412 ba se ke ba hema
122_0413 hard disk drive
122_0414 se ke itshwetse mokgubu ka
122_0415 ho ameha ketsahalong ya botshwasi
122_0416 seroki sa morenengha ho etellwa
122_0417 a ba a leba kamoreng
122_0418 foreign language film
122_0419 polymerase chain reaction
122_0421 phefumoloho ho kgohlola le ho
122_0422 ba kopanyang ba kopangwa ke
122_0423 disebediswa le ho fokotsa bofuma
122_0424 sa phetla le ho phetla
122_0427 ho mo lwantsha ha ho
122_0428 ho mofani ke mohato wa
122_0429 sebini se binang se le
122_0430 ya dikgetla ho kutwa ha
122_0431 ya ho ba le ditshwaetso
122_0432 persal e fumaneha setlankaneng sa
122_0433 le di arv di ka
122_0434 butse mokete ka pina ya
122_0437 se o le pshasha ho
122_0438 hatisitseng ya phatlaladitseng ya bapetseng
122_0439 ka moamohedi wa setswakantle ho
122_0441 ho hira ikopanyeng le moeletsi
122_0442 sa tsitsang le ha e
122_0443 ne a utswitse diphahlo lebenkeleng
122_0445 o se ke wa tlohela
122_0446 ho raleng le ho phethiseng
122_0447 ka ha o tlwaetse ho
122_0448 ke lesira le le pudutswana
122_0451 career home run
122_0453 le phethiso di na le
122_0454 kgafetsa le kgafetsa le diseneke
122_0455 o ne a sa mo
122_0456 se ke wa ya le
122_0457 ho hiruwa ha ka potefoliong
122_0459 ka bowena o be o
122_0460 american film producers
122_0462 ba tshedisehe o na le
122_0465 le eo e hlonngweng ke
122_0468 ha ramonate o ne a
122_0469 ne ba sa di fumantshwe
122_0470 o se o badile palekgutshwe
122_0471 ho fepa le ho nwesa
122_0474 o romelang baromuwa sebokeng o
122_0475 e rerilweng ka lekgetlo le
122_0476 tshwanang le mekitlane ya thepa
122_0477 dipuisanong e ne e le
122_0480 ba lefitori ha se bonwe
122_0482 ha re ka ra bo
122_0483 in die land wat die
122_0484 mmamenotwana towe o se ke
122_0486 ho south african revenue service
122_0487 eo ha e na mokoka
122_0489 lehlwa ha le qhibidiha dithabeng
122_0491 a mebileng ha di bolawe
122_0493 di a mengwa ho thonya
122_0494 ke hora ya bohlano thapama
122_0495 pheo ke ho hlakisa ka
122_0496 ka ho ya ka sekala
122_0498 diselefounu di ka utsuwa ho
122_0499 lengolo la semmuso mohlahlobi o
122_0501 dilomo meru e kopaneng diphulana
122_0502 e a ke le duleng
122_0503 di a bela di a
122_0504 ho itshetleheng ho sa hlokeheng
122_0505 ka ke iteletse ho lwana
122_0506 re ba hlalefile senase pakwa
122_0507 a borikgwe bo botsho kausu
122_0508 a robale ka dieta o
122_0509 a sebetsa ka boyena ho
122_0510 motho ofe kapa ofe ya
122_0512 a le lebeletse le ne
122_0513 notable examples include
122_0516 mo qhoqhang ho intlafatsa ho
122_0518 e kenngwang dikotikoting e pakwang
122_0519 ka ho toba akhaonteng ya
122_0520 ho phatlalla le rephaboliki ya
122_0523 mareo le mererong ya diprojekte
122_0525 lebile botsitsong le katlehong kgatelopele
122_0527 ne re ka ra bitsetsa
122_0529 hlwatswa sebae ka letoto la
122_0530 o ne a lapile ho
122_0534 h tswala tjheleteng ya tsetetsweng
122_0536 ya kgohlong ka ha e
122_0537 serobe phiri e se e
122_0539 san diego chargers
122_0540 ha o le paki o
122_0541 a sa o tlwaelang ho
122_0542 re sa natefetswe ho le
122_0543 se a kwenehetse kgarebe ya
122_0544 lora a haola meruemetala ya
122_0549 ho se ho fanwe ka
122_0550 dumelle le be le ele
122_0551 late bronze age
122_0552 ha di silafatswe ke ditshintshi
122_0553 dikgohola difefo dipula le marole
122_0555 ya kutlo hcps boenjinere ba
122_0556 ha ba se ba tshwanelaha
122_0557 ho felehetswa ke memorandamo le
122_0558 prince edward island
122_0559 michigan state university
122_0560 strategic air command
122_0561 o lonngwe ke mokgodutswane ke
122_0562 a le khwaereng e ka
122_0564 free trade agreement
122_0565 e sa kgahliseng ya dingangisano
122_0567 world trade center
122_0568 ho ya seteisheneng sa sepolesa
122_0569 e mabapi le dikopo e
122_0570 phoso e tsamaya le mohatisi
122_0574 persian gulf war
122_0575 ho na le ho kgaokg
122_0576 natural resources include
122_0577 maqephe a fuperweng ke patanta
122_0578 bonahetse tumellanong ya harare eo
122_0580 fapaneng le ho ya ka
122_0581 a le boyeneng a hlaheletse
122_0583 ho ya ka diphapang na
122_0585 le ho re o bope
122_0586 skweyiya jj ba dumellaneng le
122_0588 e ne e le disontaha
122_0590 kgeswa le ho bitswa mabitsobitso
122_0592 low earth orbit
122_0594 na re ne re itshwenyetsang
122_0597 le nna ke le tjena
122_0598 behela ba mmokanetseng a kgutlisa
122_0599 le diyalemoyeng re hlokomediswa ka
122_0601 pope pius
122_0602 seratswana sa d ha e
122_0604 ho ithuteng le ho rutweng
122_0605 le adv j de lange
122_0606 ya remittance advice ya nothisi
122_0608 o ka ba wa ya
122_0609 ntsi ba se ba e
122_0610 wolf whistled le ho betwa
122_0611 ho ya ka dikarolwana le
122_0612 mokganni eo o ne a
122_0613 hose phahle makunutu abonaj k
122_0614 le sa tlohe phofung ya
122_0616 inspector of mines ciom ya
122_0617 khompuyuteng a ke ke a
122_0618 kutu ya sefate e le
122_0619 re di etse mohatla kgwiti
122_0621 re ha o a thaba
122_0626 hiruwa ha ka potefoliong ya
122_0627 a potlakile le ha re
122_0628 o se tlodise ho ja
122_0629 le ho tlanya typing o
122_0630 tsejwalo a ba a re
122_0631 tiehiso ya ho phethela dikarolo
122_0632 ke tshabo tshabo ya ditlamorao
122_0633 ya mmofu e kgonya mokgwabong
122_0634 se ka mpitsa moratuwa wa
122_0635 mixed martial arts
122_0636 tsotella le ho phedisana ka
122_0637 ditshisinyo di ka kgonahala ha
122_0638 camp david accords
122_0640 ya lejwe la ntatao eo
122_0642 sepheyo ke ho nyalanya boitsebelo
122_0643 e ya hatiswa e saenwe
122_0644 ba qelelwa dinthong ha ba
122_0645 union member economies
122_0646 ya a a nkellang hloohong
122_0647 nthe hee ka ka ka
122_0648 di so ka di rekiswa
122_0649 ka ha re se re
122_0650 wa thoteng tlhophollo le tlhaloso
122_0651 a rohakane a be a
122_0652 ka ha ho hlomamisitswe ke
122_0654 a ka monyeha letlalong ka
122_0656 ho ya ditameneng shu ha
122_0659 ba ka nthusang ho itholamorwalo
122_0660 ka ho ya moketjaneng ono
122_0661 le ha ho qaqisitswe ka
122_0662 o ke ke wa etsahala
122_0663 ya tsitsinngwa ke diheshana bomafisa
122_0664 mekotla ya mashala ka veneng
122_0665 na le boipelaetso bo isteng
122_0666 d ho hokahanya le ho
122_0670 di ka qhalakanngwa le di
122_0671 ba chikano ya sireletsang le
122_0673 khampani ya ba mmalwa e
122_0674 wena moetapele wa setjhaba le
122_0675 kgele a tsoha a tlola
122_0676 ya emia e na le
122_0678 ho bapiswa le ho a
122_0680 le ho re kumela ka
122_0681 sa le ka madungwadungwa ke
122_0682 senyehileng e senya thaere ya
122_0684 ha re ne re ilo
122_0685 le ho phuthollwa ka bo
122_0686 se di sebedisetsang ho kenyakenyana
122_0687 o ne a ikete ho
122_0688 ho batjhana ba ka ba
122_0689 ba tsamaella ho ya boitshwarong
122_0691 public international law
122_0692 international criminal court
122_0694 hee ke re o nkgitlile
122_0695 mmetla o kgola o e
122_0696 o lakatsa ho tsebiswa le
122_0697 united states coast
122_0698 le tjhaba le dikela ba
122_0699 ya tuma ka ho reketla
122_0700 ne e le e ke
122_0702 kgauhelo e ne e le
122_0703 israeli prime minister
122_0704 haebe o kile wa fumana
122_0705 ka dinkgo ho ya sedibeng
122_0706 sa rena le ho rena
122_0707 moro kgotla ha o okolwe
122_0708 ho se sireletsehe tshwaetsong ya
122_0709 o na le mosadi le
122_0712 bofentefente ha ba sekhweshemetsa ba
122_0713 a le mahlomoleng a ho
122_0714 ba bangmme se kaba le
122_0715 eo ho bafuputsi ba ikgethileng
122_0718 re thobela diponono di thobelwa
122_0720 ba e lahlele lebokoseng la
122_0721 ho ba le dvt ba
122_0723 le sireletswe le ho notlellwa
122_0724 ka hodimo ha ho tshwauwa
122_0725 la ho ya le ho
122_0726 di ne di sa mo
122_0727 sekgutshwane sa akha onte ya
122_0728 boitjaro ho tshepahala ha botsamaisi
122_0729 ke ne ke sa mmone
122_0730 se makatsang ke ho re
122_0731 ho nyaroha e e bo
122_0733 le kgelohang tokelong ya bohato
122_0737 central african republic
122_0740 mmakgama a itshela ka dikgapha
122_0741 eo a qetileng matsatsitsatsi a
122_0743 ya mmokelli eo wa dikoloto
122_0744 ntlokgolo ya icd e pretoria
122_0746 ha o ne o re
122_0747 iv na ho na le
122_0748 e ka bolokwang e tswella
122_0749 o se a tsohella ha
122_0750 ya mmakoma a sa lobe
122_0751 a maholwanyane e be a
122_0753 a epa pitso ya ba
122_0754 digital signal processing
122_0757 le e qhwaelwang sefubeng kgau
122_0759 memorandamo le articles of association
122_0760 o a pepeseha o a
122_0761 ya matarapane o ne a
122_0762 ne a bitsitse mmantsopa ie
122_0763 mo apese ka mapheo manong
122_0764 ho shatilefensetereng ha re tswaa
122_0766 se omeletseng se sa fumaneng
122_0767 pedi borarong ya mebuso eo
122_0768 le ho lokisetsa ho tsebahatsa
122_0769 di ka nyoloha ha e
122_0771 ya ill e na le
122_0772 e thehilweng bodumeding le dihlopha
122_0773 ya referense eo o e
122_0774 ho re ba re kwetletse
122_0775 ho ya bosoleng ho ya
122_0776 deedsweb ka ha ho na
122_0777 ho ka iteangwang le ba
122_0778 ba re ke ho qetello
122_0780 ya momahanyo ya dikgokahanyo le
122_0781 a se hlokang bophelong ba
122_0782 sa ka ka ba le
122_0783 a lekanang mahlakoreng a mabedi
122_0785 dihotele dikhemisi le dikereke a
122_0786 ka ho ya ka minerale
122_0788 ho eteletsa le ho ntshetsa
122_0789 ekare re diphoqo ha re
122_0790 ke diyanokeng di bapile le
122_0791 recent common ancestor
122_0792 ho ya ka pilir o
122_0793 mmasepala o ne a sisintse
122_0794 dithunya le ditanka le difofane
122_0795 nehawu le psa e le
122_0797 ya mohoma sa basa ya
122_0798 award winning authors
122_0799 ha e a kgotsosofala ngwaneso
122_0800 a ka masakaneng a ngolwe
122_0802 treaty organization nato
122_0804 medicine price list mpl le
122_0805 di ne di sa susumeletswa
122_0806 a teetswe hare ke ditsietsi
122_0807 ya mahaeng le maphelo a
122_0808 ya pa role ya ho
122_0810 world trade organization
122_0811 sethetsabadisana ha ho bolelwa banana
122_0814 ho se be lengwana ya
122_0815 bahale ba furallwa kebasadi ho
122_0816 e lebi sang tlhalohanyong ya
122_0817 ako lese ho itshela ka
122_0818 k h r mapenshenara le
122_0821 o a thatafallwa ha a
122_0822 ka nqeng ya ho kwetelwa
122_0823 o ne a dula a
122_0824 esele ke a o nyonya
122_0825 a mmatle a mo tlise
122_0826 o ne a sa robale
122_0827 dikhabinete ho betla mapolanka ho
122_0829 cup winners cup
122_0830 ha o sa re natsa
122_0832 leaho e ne e le
122_0833 o be le dikamang ka
122_0834 o ye a be le
122_0835 mo re qa kgetlo la
122_0836 nolofatsa le ha ho le
122_0837 ha mokomshenara a se a
122_0838 sa sebetseng iteanye le ba
122_0839 royal australian navy
122_0840 o feleheditsweng kemoya obatang le
122_0841 ba arohana mmileng o fetang
122_0842 hemela a ba a mo
122_0844 ho tlolapele ha re sa
122_0845 bohloko ka ho fetisisa ke
122_0846 ba sa ntsaneng ba botsana
122_0850 mosadimoholo mmadiepollo o ne a
122_0851 my nou te doen staan
122_0852 a veke ho sa sejetswe
122_0853 ho natefelwa ke dingolwa e
122_0854 e so arabelwe ka ho
122_0855 joint initiative on priority skills
122_0856 e a amoheleha ya ho
122_0857 ha o hlajwe ke dihlong
122_0859 ntumella ha ke re o
122_0860 tshwaetswa ke hiv le aids
122_0861 mohloding le ha e le
122_0863 r j r masiea e
122_0864 ba ne ba fetotswe ke
122_0865 northeastern united states
122_0866 di a dumellana mo mahano
122_0867 le ha e le lesobanyana
122_0868 rejisetara le sehalo di sebedisitswe
122_0869 president theodore roosevelt
122_0870 a sa tahwa o ne
122_0871 e ne e se lekwala
122_0874 kenang toropong e ne e
122_0875 mathakang ba rongwa ba hlatswakang
122_0876 ya ka e duma ditshepe
122_0877 dithupello le ho tlatsetsa ditataisong
122_0878 le ho qadisa diprojeke ke
122_0879 ha ho ka ke ha
122_0881 a sa tsebenthoeo a e
122_0882 o a bonahaletsa o ke
122_0883 oo ho wona o hlahisang
122_0885 ngola ka mongolo o makgethe
122_0890 british east india
122_0891 a ho qeka le ho
122_0892 o ne a re file
122_0893 ha bofutsana bo e ja
122_0894 mo hauhela a re ho
122_0895 electron degeneracy pressure
122_0896 e e ka re ke
122_0897 a fotse le ha ho
122_0898 phetwa e be mmohi o
122_0899 e na le ho re
122_0901 o ne a dutse ka
122_0902 na e fela o arabile
122_0903 wa ikahela ka ho sa
122_0904 rugby union team
122_0906 ba ya dikolong ba hlometse
122_0908 ke tshepo ho aubuti thabang
122_0909 le ho tsoha o tsohile
122_0910 kantle e ne e le
122_0915 o ahlame o mo tonetse
122_0917 ha a ka a arabela
122_0918 e ye e be ka
122_0919 itlama ho se behe saps
122_0920 e ka letsohong le letshehadi
122_0921 felehetsa ho kgutleha hlakoreng la
122_0923 ho ne ho ithabiswa ka
122_0924 ha e se e otla
122_0925 cricket world cup
122_0926 tlhapa e ne e sa
122_0927 bapalami a sa ba fe
122_0928 e re nengneng a eme
122_0930 ba bangata kamoo ho ka
122_0931 ke ke ya leshwa ke
122_0933 e lethwethwe o elellwise mokomishenara
122_0934 ha e ne e le
122_0935 le ka madungwadungwana ho ya
122_0936 iswe ho ba baholo le
122_0937 e sa le e qheletswe
122_0938 profeshene e se e kgathile
122_0939 wa mautse ha dubeha ha
122_0940 eo ho buuwang ka yena
122_0941 eo o e sebeletsang e
122_0943 le maqheku a lenyalong ba
122_0945 re ye re sitele jehova
122_0946 batswadi ba ne ba tsebiswe
122_0947 sa ho vouta sedikeng sa
122_0948 tadimile ka leihlola kaine ho
122_0949 re e se e le
122_0951 a pepeseha o a totobala
122_0952 ha o qeta o be
122_0953 a bala le ho boha
122_0954 be le ho fapoha dipallong
122_0956 e ke be e rutile
122_0957 ya babokelli ba dikoloto ba
122_0958 e se ke ya ba
122_0960 e le o rarahaneng ho
122_0961 bodileng matshwele a sollang a
122_0962 a di utlwisisang le ho
122_0963 le kutlwisisano dihlotshwaneng ke se
122_0966 council for natural scientific professions
122_0967 dikhampaning dikoporasing le baleming ba
122_0968 ne di na le ho
122_0969 le ho seholla mmateboho habohloko
122_0970 ke se ke ekwa ke
122_0974 ha a sa e fuwe
122_0975 na ba se ba thusitswe
122_0976 cite journal title
122_0978 re re re qhwaolla kobo
122_0979 southern african development
122_0980 ya b le ya c
122_0981 lerumo ho kgabola kanono moela
122_0983 le ho se utlwane bara
122_0985 mohlomi o ne a ithatela
122_0986 ho tiisetswa e le ya
122_0988 a mo jakisa jareteng ya
122_0989 re se mo tlatlapile se
122_0990 ba angwang le ho tshwaetswa
122_0991 na o kgathatswa ke lesokolla
122_0992 o ke ke wa e
122_0993 ha e se e ntshitswe
122_0994 ho re ho se be
122_0995 ho ba ka hodimodimo lenaneng
122_0996 a ne a re re
122_0997 a butswelana ka tholwana le
122_0998 ke sa na boikgethelo ha
122_0999 ke batlatlapi ba ikotlang sefuba
122_1000 e re ke o bolellennete
122_1001 ba reke dijole ho patalla
122_1002 ke mona o se o
122_1003 ha ba ne ba sa
122_1004 million years ago
122_1006 tlhwekiso ya matlwana ke le
122_1007 naval air station
122_1008 re re ye wits ka
122_1009 ho registrar of animal improvement
122_1010 ka ke sa tsilatsile le
122_1011 ho ne ho se ho
122_1013 o e na le sehatsetsi
122_1014 di fumanehe khomputeng ikopanye le
122_1015 ba a phehelwa dinama le
122_1018 le ho phomosetsa bamemuwa ba
122_1019 makuleke kruger national park dinaheng
122_1021 ka letlotlo le siilweng ke
122_1024 kgolong ya ka le tshiung
122_1026 west african states
122_1027 uke ichi ni san ji
122_1030 qetel long ya boimana ba
122_1031 le ho akofisa bonamo le
122_1032 ba mo epela ba mo
122_1033 mokuru o se o sibile
122_1034 ba kgethetsweng ho ba diroki
122_1035 e be re ke ke
122_1036 original game boy
122_1037 ha ba hlomphe mosuwe ya
122_1038 a tsweretse sa tweba e
122_1039 ke ne kekopa matlaa ho
122_1040 e sebeleditsweng kathata le ha
122_1041 on financial awards pfa dinnete
122_1047 ho se qose ha se
122_1049 oporeishene ho kokobetsa mahlaba le
122_1050 e ne e le senokwane
122_1051 ba neba ke ke ba
122_1053 ke ke a phonyoha ke
122_1054 tekanyetso e tswellang ke lewa
122_1055 ha ho na pilisi enjekeshene
122_1056 arotswe ka mekgahlelo e meraro
122_1057 palestine liberation organization
122_1058 ke ke ba toboketswa ho
122_1059 united states capitol
122_1060 a re o se a
122_1061 re ka be re di
122_1063 poraevete k h r ba
122_1064 ya bcm le ho hlaisa
122_1065 services development plan wsdp e
122_1066 mo tadime le ho mo
122_1067 na ho ne ho le
122_1068 ka ho re tselatshweu matebele
122_1069 le ho se ikamahanye le
122_1070 dikoloing ho ya ka ho
122_1072 thonya bonkgetheng ba loketseng ho
122_1074 ho nehelawe ka tataiso ho
122_1075 ho okamelwa ke ditlelereke phethahatsong
122_1076 ba ne ba ye ba
122_1077 hlwauweng ka ho ya ka
122_1078 ho ka tsoselletsa mofuthu wa
122_1079 ba ne ba na le
122_1080 paris peace conference
122_1083 ha ke na le tletlebo
122_1084 ba ka a ka tshababeatrice
122_1085 dumedise ka ho re dumelang
122_1086 le e atlehileng ho fihlellwa
122_1087 articles containing video
122_1089 setshwantsho se se hlalosang neha
122_1091 batshosi ba tsohellang masimong esale
122_1093 metsofe le ba holofetseng ba
122_1094 sefifi sa phoofolo e shweleng
122_1095 e qotsitswe le ho lokisetswa
122_1096 di ne di hatelletswe ka
122_1097 cola le ditjhokolete di na
122_1098 o bue o ke o
122_1099 ho ya ka balanse e
122_1100 lehlokwana le finnweng lefito o
122_1101 motsokapere o ne a na
122_1102 se ba e butswela ba
122_1103 ho ruruha ha manonyeletso di
122_1104 european economic area
122_1105 disampole di nehwa ba osts
122_1107 atomic energy agency
122_1108 a se a sa tlwaela
122_1109 major league record
122_1110 tshositse ka ho o bolaya
122_1111 mafotholeng e ne e le
122_1112 re le ne le le
122_1113 ha ho sa na moketjana
122_1114 le ho ruruha ha manonyeletso
122_1115 o be o le sehelle
122_1116 ohio state university
122_1117 e rabella ka sabole ho
122_1118 bo menomasweu ba o bolayang
122_1119 mananyetsa o ne a ikgakantse
122_1120 ka kotloloho le ho kgutliswa
122_1121 ho ba ya ikanang a
122_1123 riemann zeta function
122_1124 matlong a rdp ho a
122_1125 wa ho fepa le ho
122_1126 molangwana molangwana oo ke wa
122_1127 o mula nthwane ya se
122_1128 ya ba e se e
122_1129 sa baikopedi ba sa atlehang
122_1130 dikharikhulamo di na le ho
122_1131 ba ho hlabolla botsebi ba
122_1132 ba a kwetse nqi ba
122_1133 metsing he motswalle ha ke
122_1134 ka ba le tshusumetso e
122_1135 o loileng o itoile ka
122_1137 bosofe bo ka ba le
122_1138 a selasela theepe ya dimo
122_1140 se mo tlatlapile se tseka
122_1141 mo kgothatsang le ho mo
122_1142 re ke re e tshohle
122_1143 e se e nkeme maqothe
122_1144 ha o letsetsa healthline o
122_1145 kganyapa o ne a le
122_1146 pepesehile le ho ba tlokotsing
122_1147 actor golden globe
122_1148 largest trading partner
122_1149 ke potele e kgwathwang ka
123_0002 new york times
123_0005 be a mo lohetse mano
123_0006 new age movement
123_0007 australian prime minister
123_0010 le ho ya ho e
123_0011 wa sepalangwa se sebedisitweng thomelong
123_0012 a porafete ho ka ipehwa
123_0013 kgoro ke ha ho kenwa
123_0015 ba ho kgeswa le ho
123_0016 o ne o nyekilwe ke
123_0017 kabelo a sa le monyenyane
123_0018 ke re ke maobanyana a
123_0019 di bopella kahare ho ditekanyetso
123_0020 a tiise le qhelele ka
123_0023 ba di tshwaetsweng le ditekolo
123_0024 ho ya ka tsebo ya
123_0025 hoa ho a ka ba
123_0027 re imatahantse le banka ya
123_0028 a fumanwang ho bomarabe ke
123_0029 se kgopisehe o se hlekefetse
123_0031 ba se ba itshwantsha le
123_0032 ruburiki ho na le ho
123_0033 ba ka tsheptjwang ke ba
123_0034 mabone ya bohlophisi ya ho
123_0035 ka bobare ho ya ka
123_0036 accurate date information
123_0037 e fuphula sa phakwe tsuonyana
123_0038 ndoh le etseditswe ho etella
123_0039 le se ke la ya
123_0040 ke a itahla ha ke
123_0041 league championship series
123_0042 ho ajwa ha maruo a
123_0044 bo fetohakang le f ho
123_0045 letsholo la ho hlasela le
123_0046 ho lefshwa e le tefiso
123_0047 ne o ka satalatsa molala
123_0048 sa mekgahlelo ya ditsiane e
123_0049 ka tlelapa ke ne ke
123_0050 fumanweng ho bafani ba tlhokomelo
123_0051 re re mo tlohelletseng tleneng
123_0052 thipa ka bohaleng ke ka
123_0053 intellectual property rights
123_0055 ho jewang hlenhlenyane ho ya
123_0056 oka seso ka makgapha ha
123_0059 a fapaneng le ho ya
123_0060 ba ho qhekanyetsa wa mphato
123_0061 metse ya ditoropo le kgodiso
123_0063 ka ha o le mokapotene
123_0065 sekgukguni ha a le ka
123_0067 o ie mahlokong o ie
123_0069 morumo morethetho metuta ya diphetapheto
123_0070 oo lentswe le ka bang
123_0071 ke pac e tshwanelehileng di
123_0072 environmental protection agency
123_0073 ya ya matamo a ho
123_0074 la ka le ne le
123_0076 oo o o kgethileng ho
123_0077 ba menngweng ka boithaopo ho
123_0079 wa sejwalejwale o tenyetsehang le
123_0080 ba hlanya ho ne ho
123_0082 sa di ja le ho
123_0083 ho re ha e ye
123_0084 infant mortality rate
123_0086 ditharollo le ka be le
123_0087 american medical association
123_0088 ha e ka ba kaenyana
123_0089 itebala ho re ba ya
123_0090 patanta eo paloyohle ya dipatanta
123_0091 je ba ke ke ba
123_0092 kalana ya moriti le khanopi
123_0093 nnyane a swaba ha a
123_0094 e na le ho rema
123_0095 seporo le dikou le ho
123_0096 sheshe le ha e le
123_0099 meraro ya ho hweba ka
123_0100 bontatemoholo ba ne baitshepetse ditaola
123_0101 royal australian air
123_0102 eo ho ne ho le
123_0104 trade unions ho ba fa
123_0105 e itebetse ho se ya
123_0106 dintja di se di thotse
123_0107 le hoketsweng tshepeng ya heke
123_0108 e ikemelang e le notshi
123_0109 music awards winners
123_0111 bo naka di maripa ho
123_0112 ya jenerike e na le
123_0114 e fumanweng e le dimpho
123_0115 be pelonolo a be le
123_0118 moreki a ka iteanyang le
123_0119 e ne e le mokolonele
123_0120 ho sisinyeha ho hosesane ha
123_0121 e tshehadi e sa tswaleng
123_0122 keletso e ahang e buang
123_0124 ba be ba se ba
123_0125 re ke ke ra swabela
123_0126 se ke lemoimana ha ke
123_0127 renkeng ya baragwanath barekisi ba
123_0128 indastering ya polatinamo ha ho
123_0129 ka kganyapa ho ne ho
123_0130 ho fumana setifikeiti sa botho
123_0131 eo ba e emetseng ke
123_0132 ka hapeterose a ne a
123_0133 e se e hlwahlwa hakaalo
123_0134 mesebetsing e tshwauwang ke baithutimmoho
123_0135 kotjwa ke motshwaruwa ka ho
123_0141 american musical theatre
123_0142 united states department
123_0143 le hlolwa ke ho itjarela
123_0145 tsekisang be e se e
123_0146 mahata e le marabe ya
123_0147 actor academy award
123_0148 e fosahetseng ya dihlooho le
123_0149 ya kgauta e na le
123_0150 o tseba le ho utlwisisa
123_0151 ka ho mo silela lesheleshele
123_0152 ho ba morupellwa wa hlophollo
123_0153 a theolwa ho ya ka
123_0154 holy roman emperor
123_0155 ba ho thabisa baadimi ba
123_0156 rekisa ditholwana ho lokisa ditshupanako
123_0157 ba a kgatholoha hanyenyane ka
123_0158 tlhekefetso ao ho ya ka
123_0159 le se ke la hlokomoloha
123_0160 ne di qetetse ho tshwauwa
123_0161 morwetsana eo o a se
123_0163 ananelwa ke seta baabi ba
123_0164 ha e ba ha ho
123_0165 missing living people
123_0166 didietsa le lehlokwa bo ha
123_0167 dipenshene a ho se akaretse
123_0168 o ne a ke ke
123_0170 billion years ago
123_0171 o ne a tswallwang le
123_0173 se kgabole ha a boya
123_0175 sa ho ntshetsapele ikonomi e
123_0177 o amohetsweng ka ho qoholleha
123_0178 adelaide tambo o ne a
123_0179 eo re mo tswetseng o
123_0180 se e le wa semanyamanyane
123_0181 supa ku tlwisiso e kgabane
123_0185 thusong e arabelang le e
123_0188 air traffic control
123_0190 apesa ho kupetswe bofeela ba
123_0191 npo le ha ho le
123_0192 lokodisitsweng ke mofuputsi ho kenyeleditswe
123_0194 lebelletswe ho rerisana le ditsebi
123_0197 procedural programming languages
123_0198 ba ruisitse maqheka a bohlalefi
123_0200 a thusana ha le le
123_0201 ne bangongoreha meyeng ha ba
123_0202 ho na le di hansard
123_0203 ho na le phokotseho e
123_0204 ba re lesokwana la ya
123_0207 a seterateng a ne a
123_0208 momahanyo le ho boikamahanyo ba
123_0209 e a nenwa naheng ya
123_0210 e ne e le la
123_0211 ha ke re o utlwile
123_0212 hlokahalang le matsapa a ho
123_0213 e le o kolotang ka
123_0214 ka motjhanae ontse a hotse
123_0215 ya penshene le ya ho
123_0216 lefshwang ka tlaase le baithaopi
123_0218 o e sa le ba
123_0219 natural gas reserves
123_0220 c ho ngangisana le ho
123_0221 o ka wa e noha
123_0223 sehlahla mafenetha o ne a
123_0224 ka ho ngolla moromowa ho
123_0225 a itlhompholle ka ho phetela
123_0226 ho re ho na le
123_0227 o na le kgohedi e
123_0228 le moputswa pududu a sa
123_0229 o ne o ka ba
123_0230 di sa re hlahele re
123_0231 ha di hlophiseditswe ho ka
123_0232 mo kwalamolomo ka seatla sa
123_0233 bo ne bo hwebisana le
123_0234 o mphara ka melato eo
123_0235 e hokahaneng tlwaelo ya ho
123_0236 theilweng ka ho ya ka
123_0238 na ho sehwajwang ho rokwa
123_0239 a ikitlaheditse ha e le
123_0240 re ka e fihlelang ke
123_0241 thothokiso le ya sengolwa sa
123_0242 ho tsamaisana ka ho lekanale
123_0243 ya ho fa bangga ba
123_0244 e le ha ho jewa
123_0245 sports clubs established
123_0246 lokiswa ha masalla a setopo
123_0247 ho be le phumantsho e
123_0249 ba mashaba ba ne ba
123_0250 ya ho ba mahlabeng ha
123_0251 se ba kopanyang ba kopangwa
123_0252 a b c d o
123_0253 a akgeha ha a le
123_0254 ke kene morerong oo wa
123_0255 letlole la ho ya pensheneng
123_0257 kgothaletswe ho iqalla le ho
123_0258 rarahane e na le ditumelo
123_0259 e moholwanyane ha a kopuwa
123_0260 be ho petsohe le mafika
123_0261 ka tshoha ke se ke
123_0262 ya bosebolelo ya ho qhelela
123_0264 ka phaposing ya ho phomola
123_0265 citation needed april
123_0266 thobalane ba ne ba sa
123_0267 tafoleng eo ho tsebiswang ho
123_0268 ka maleng komishenara o ne
123_0269 le se le mo rutile
123_0272 ho re ha e a
123_0274 ho na le kgathatseho ka
123_0275 le baphedisuwa ba ka e
123_0276 fuwang mosebedisi ho kgema le
123_0277 makubetse e ne e le
123_0278 american league championship
123_0279 e se e hlahelletse poyaneng
123_0280 a itshehela a ba a
123_0281 mookgo o ne a iballa
123_0282 containing video clips
123_0283 a post graduate di institjhusheneng
123_0284 methodist episcopal church
123_0285 re se re kgenne e
123_0288 manufacturer for agoa particulars di
123_0289 ne o le bolepolepo o
123_0290 institushene e tshepuweng ka ho
123_0291 ke ke ha eba bonolo
123_0292 tu ha ho sa na
123_0293 ha o re o a
123_0294 a o fetohela oiphumane o
123_0295 a rarahana di a lohellana
123_0296 kuruetswa ke ho re a
123_0297 ba hlwauweng ka ho ya
123_0298 eyes wide shut
123_0300 le bitleng la mmaletrato le
123_0304 ke utlwile bothabiso ba re
123_0305 homo phopholetsaka ka mokgwanyana o
123_0307 ho phethela boikwetliso ba thapameng
123_0308 free software programmed
123_0309 re majalefa a sekema se
123_0310 la ho se utlwane ka
123_0313 tseno ka ha di ke
123_0314 round table le rotary le
123_0315 ha e a etswa ho
123_0317 ka ho qolleha ba kopanye
123_0321 oo ho ona mongodi a
123_0325 wa mooki tliliniking e ka
123_0328 ya qositsweng ya lokollotsweng ka
123_0329 le mosenekeng ke ha di
123_0331 bafubedi ba re tlere ke
123_0334 trust ya ntsahetsopele le ka
123_0335 e se e le motsheare
123_0336 etlare ha ke tea kalala
123_0337 ya mo fenetha ha ba
123_0338 mekga e thusang ka ditjhelete
123_0340 bolaoding ba lekalala fet re
123_0342 e kgotjwa e le maoto
123_0345 tshware babelaelwa e be ba
123_0346 ha letsohole fepela mmetso morenao
123_0347 tshenyeho ya mesifa mascular dystrophy
123_0348 kgelohang tokelong ya bohato bofe
123_0349 ho notlellwa ha di sa
123_0350 ho yahae e ke ye
123_0351 summer olympic games
123_0353 ho ile ha ba le
123_0354 ka makgetlo a tsheletseng ka
123_0355 ya makwalata e ka fodiswa
123_0356 ka nepo ho fetisa ka
123_0359 a se a swentse ka
123_0360 hugo award winning
123_0367 wa matsibolo a se a
123_0368 le ha hone ho le
123_0370 pitsa e phehang gauta ka
123_0371 ka ha ke ne ke
123_0373 ba intshang sehlabelo ka ho
123_0377 ditshila ya ho bapala ka
123_0379 le tshwantshe le la ka
123_0380 johann sebastian bach
123_0381 se nw e seno se
123_0385 sa mo re shwato nkong
123_0386 human rights abuses
123_0387 nafvsa e na le phaposi
123_0388 ba pitikisana ba ba ba
123_0390 a ne a ke ke
123_0393 ba ba le kgaoho ya
123_0394 ke sa o putsa ka
123_0396 atomic energy commission
123_0397 se batlwang ke takadimane ba
123_0398 ha o seilwe ke ba
123_0399 ba le phehiso e tlotlehang
123_0400 ne ba ye ba re
123_0402 aung san suu
123_0403 wat sal my nou te
123_0404 ke ke ya ba ka
123_0405 buisanang le ho ngangisana ka
123_0408 mo hlokomedisa ka bobe le
123_0411 ne o ntjodietsa ha o
123_0413 re e ka mo loma
123_0414 mohlomi o ne a etelwe
123_0416 hlotjhwa ha ba di shebelletse
123_0418 se a kgahlilwe ke ka
123_0419 ho se ho ho le
123_0423 ntlheng le ha e le
123_0424 roman catholic bishops
123_0426 o qetelletse a se a
123_0428 na le seroto se sa
123_0437 matshwafo a se a uba
123_0440 ho re ho se ho
123_0441 e re pududu a sa
123_0442 a sa ka a kgaola
123_0443 a pula a phallella ka
123_0449 tjhotjholosa ba ne ba le
123_0450 e se e ie dibeke
123_0451 le apesa ho kupetswe bofeela
123_0452 o ne o e so
123_0454 didibeng babalang ba re le
123_0456 ntjapedi ha e hlolwe ke
123_0457 wa ket sahalo ya ho
123_0460 ya ka tlelaseng setsing sa
123_0461 a ka ngodiswa e le
123_0462 le ha e se a
123_0466 mo tshabang ho nkgisetsana mahafi
123_0468 maru a matsho a fifetseng
123_0470 john maynard keynes
123_0471 tjhetjha a ba a tjhetjha
123_0472 re ba memmeng ka ho
123_0473 ho bolokwa le ho hlokomelwa
123_0474 ka theko o kgutsa motsotswana
123_0475 re lebatswadi ba banabana le
123_0476 ya mo hatelletseng e ba
123_0478 o re qobella ho hasanya
123_0479 dikabo ka ho ya ka
123_0480 ke ba ha e le
123_0482 ya vat vendor search ke
123_0483 a tsamaya o ne a
123_0484 dikgwerekgwere le monyediso ya mantle
123_0485 o ne a hlabile dioka
123_0486 boikopelo re se re sa
123_0487 eo re ka mo kgothollang
123_0488 direng ba mo seohela ba
123_0489 o sa le motswetse e
123_0490 re be ngatanngwe ke pheto
123_0491 o ne a sa thothomele
123_0492 o ka e fofela ka
123_0493 ba ke ke ba jala
123_0494 o sa dumellwang wa ho
123_0496 ka ba o re o
123_0497 dipalesa mabitleng e ne e
123_0501 a re itjhuu itjhuu itjhuu
123_0502 bomolao boikarallo ho ba le
123_0503 o se ke wa kenya
123_0504 se ke wakgahlwa ke lefiso
123_0505 na le ho bakang ho
123_0507 a holetseng ba kwalehile ba
123_0509 ho ya ka dikereiti mephatong
123_0511 developments pty limited le khayalethu
123_0512 e tjhaelwe monwang ke ba
123_0513 di fetolelwe ke mofetoledi ya
123_0514 ahile london le moahlodi arthur
123_0515 ho ikopanya le bafepedi ho
123_0517 e feletswe ke ho ba
123_0518 verify source date
123_0519 leno e ne e le
123_0520 ba ne ba hlohlelletswa ke
123_0522 le ho phehisana le mafatshe
123_0523 nkong ke molebedi eo ho
123_0526 nakongena mohale o ne a
123_0527 bo ne bo sa amohelehe
123_0528 mehlengwa ka seipheo sa ho
123_0529 wa monnamoholo o shapuwe ho
123_0530 sa kgahlehe e le diqhwala
123_0531 a belaela ha atshwanetse ho
123_0532 ka pakana ya sakarete le
123_0533 academy award nominations
123_0534 day saint movement
123_0535 a tsielehile e le ka
123_0536 se manollwa ka bo tlalo
123_0537 tlaleho ho ama le ho
123_0538 ne a se a roballetse
123_0539 ya eketseha ka ho bonahalang
123_0540 professional sports teams
123_0541 ba ke ke ba ba
123_0542 mekgatlo eo eseng ya mmuso
123_0543 ho se tsotellwe ho se
123_0545 so fele tlhophollo ya ho
123_0547 kgutlong sa mmila o kenang
123_0548 ba di emelang baemedi ba
123_0552 okosejene o ke ke wa
123_0553 ho kenyeleditse le tekanyetso e
123_0554 lokolla le ho re ho
123_0555 di se o tshwenye o
124_0003 di boletseng e sa fokotse
124_0005 di anti retroviral le ya
124_0009 ha se a ralwa ka
124_0011 ha ho na ho ba
124_0014 e ne e le nonyana
124_0016 se e le ho ka
124_0017 lelapeng ho ka ba le
124_0018 molamu o kopane le tshepe
124_0019 ka ha o se o
124_0020 oo ho ne ho le
124_0021 badan pusat statistik
124_0022 ha se etsahale ka ho
124_0023 di sa fohlwa o a
124_0024 ho ya mo nkisa mokotla
124_0025 le talente le ho ba
124_0027 ke re ho ya ka
124_0028 o itshebeletsa ho ya ka
124_0029 oo di so ka di
124_0030 ha o se o ngodisitse
124_0031 le be le mo dikelle
124_0032 kgothaletso ya boikgwantlello le ho
124_0034 dijonyana snacks a tsholwa ka
124_0035 ho na le letamo le
124_0036 ho ya ka mosebettsi wa
124_0037 le dikokonyana di na le
124_0038 di le matlapa di thella
124_0039 screen actors guild
124_0041 bo bo lelele le bo
124_0042 ke ngongorehe ka ha ke
124_0043 ludwig von mises
124_0044 ho ja papa ya lephotho
124_0045 o ne a sa suthe
124_0046 mohloki ya kgesehang kgutsana le
124_0047 a le tipatipa ho ya
124_0048 eo o sa e utlwisiseng
124_0049 european union le ahile diphaposi
124_0050 wa ho lahlwa ha dikgwerekgwere
124_0051 supreme court ruled
124_0052 le phehiso e tlotlehang malepeng
124_0053 tsabona metseditoropong ho na le
124_0054 mo hlahetseng mo romelle karete
124_0055 khomishene e ikemetseng ya dikgetho
124_0057 samina o imme ya nyarosa
124_0059 ho ba le rejistara e
124_0060 wa boitokisetso le meralo ya
124_0061 bowatla ka ho mo letsetsa
124_0064 ya projekte le kananelong e
124_0065 wa ho hlwekisetsa bommisisi dijarete
124_0066 meloko ya ka moso e
124_0067 mongata e le wa dijareteng
124_0069 science fiction convention
124_0070 se tshwasang dihlapi ke sekepe
124_0071 be ba se ba ho
124_0072 d e le f ba
124_0073 american football conference
124_0074 ba le pin ya ho
124_0075 international labour organization
124_0077 burundi comoros sudan haolo ho
124_0078 a hamme e tswele le
124_0079 le be le dikele na
124_0080 gibbs free energy
124_0081 ne a se a le
124_0082 ha o ya ho e
124_0083 a ne a le bodutunyana
124_0084 ka sms sms benefit lookup
124_0086 balaodi le bahlakisi ba dibuka
124_0087 majwala a le tshosa ka
124_0088 ba matha ka dinkgo ho
124_0089 late eighteenth century
124_0090 ho re a ye le
124_0091 hloko o nto araba dipotso
124_0092 ba ya phasaphasa e tjhaile
124_0093 o ne a ikane pontsheng
124_0094 madison square garden
124_0095 ho fopha ho sututsa ho
124_0096 ke kalafo e sa fellang
124_0097 se ne se na le
124_0098 ha ke re re le
124_0099 le sa le lelelele ka
124_0100 e yeng e be ya
124_0101 ho re moreneng ho hlahile
124_0102 a qela holeoto o ne
124_0103 na le tokelo ya ho
124_0104 basebetsimmohomemorantamo ka tlhokomediso ya ho
124_0105 saenneng wili ya sethato ha
124_0106 ka ke ne ke le
124_0107 ka ho lemala o le
124_0108 tlamehang ho ho ya ka
124_0110 ha ke e hloke le
124_0111 bokgotsing ba ke ke ba
124_0112 matsete a bee a thekiso
124_0113 ka ho ya ka ho
124_0114 ha o na thaere eo
124_0115 re hoetsahetse kgoba e se
124_0116 le ho phutho llwa ka
124_0117 e lwanela ho ya ho
124_0118 hela ke itlamela ke le
124_0119 english civil war
124_0120 ka ikela masihlwane o nea
124_0121 a ne a sa fihlelwe
124_0122 e le o unneng ka
124_0123 re baketse maqeba a ke
124_0124 sedulwamatswapong ha ho le hobe
124_0125 civil class
124_0127 ha mofammere a mo eletsa
124_0128 watshomong ha a ne a
124_0129 ke basebeletsi matloleng a dibenefiti
124_0130 leru le lefubedu t w
124_0131 chief executive officer
124_0132 ho re le ha e
124_0133 a bo hlothile e ya
124_0134 wa kabo ya mangolo nqf
124_0135 le hamohlomong o ne o
124_0136 e mehlano ya dilotho ho
124_0137 seturupu se se kgubedu botlolwana
124_0138 e tlatsitswe ka ho phetahala
124_0139 bane ba hlahelletseng ka mahetla
124_0140 se mo ise yunivesithing o
124_0141 ha ho letho le ka
124_0142 australian air force
124_0143 western roman empire
124_0144 o re ho a be
124_0146 e ke ke ya eba
124_0147 thupa e kojwa e sa
124_0148 ha o sa se medisa
124_0150 e itlhalosa e qadilwe ke
124_0151 a letsebe le sa le
124_0152 bo se fete leqephe le
124_0153 ne o re o a
124_0155 na le manyofonyofo a swabisang
124_0156 ho ya ka kutlwisiso ya
124_0157 poho ya mokgerane e ka
124_0158 a se a mo tlamme
124_0159 cite press release
124_0160 ho etsa bonnete ba hore
124_0161 o semena o felletseng o
124_0162 sekreste mohlolohadi o na le
124_0163 ha o pepeneneng o ka
124_0164 sa thapiswake boikaketsi bo kgemang
124_0165 re qhau a mo sudubanyafatshe
124_0166 unrestricted submarine warfare
124_0167 wa thuto le thupello e
124_0168 le ha e na le
124_0170 moepa oo ke tshwanelwang ho
124_0171 ka ha ho ne ho
124_0172 e ho na le methwaela
124_0174 oo le ha a ne
124_0175 pope pius
124_0177 ba re ha a na
124_0178 ho ithuteng le ho rutweng
124_0179 le adv j de lange
124_0180 ya remittance advice ya nothisi
124_0181 american football league
124_0183 ntsi ba se ba e
124_0184 wolf whistled le ho betwa
124_0185 ho ya ka dikarolwana le
124_0186 mokganni eo o ne a
124_0187 hose phahle makunutu abonaj k
124_0188 le sa tlohe phofung ya
124_0189 e tshwarellang e kgodisang le
124_0190 inspector of mines ciom ya
124_0191 khompuyuteng a ke ke a
124_0192 kutu ya sefate e le
124_0193 re di etse mohatla kgwiti
124_0194 lekgethi o be o le
124_0195 re ha o a thaba
124_0197 na ba e rutilwe ke
124_0198 le ho ya kamolao wa
124_0199 o ne a thabiswa ke
124_0200 hiruwa ha ka potefoliong ya
124_0202 o se tlodise ho ja
124_0205 tiehiso ya ho phethela dikarolo
124_0206 ke tshabo tshabo ya ditlamorao
124_0207 ya mmofu e kgonya mokgwabong
124_0209 mixed martial arts
124_0211 ditshisinyo di ka kgonahala ha
124_0212 camp david accords
124_0213 o ne a re o
124_0214 ya lejwe la ntatao eo
124_0215 olato e ne e le
124_0216 sepheyo ke ho nyalanya boitsebelo
124_0217 e ya hatiswa e saenwe
124_0218 ba qelelwa dinthong ha ba
124_0219 union member economies
124_0220 ya a a nkellang hloohong
124_0221 nthe hee ka ka ka
124_0222 di so ka di rekiswa
124_0223 ka ha re se re
124_0224 wa thoteng tlhophollo le tlhaloso
124_0226 ka ha ho hlomamisitswe ke
124_0227 o ne o le lelele
124_0228 a ka monyeha letlalong ka
124_0229 ne bo hlomola ho le
124_0230 ho ya ditameneng shu ha
124_0232 le mmamoruti ya mmoledi ke
124_0233 ba ka nthusang ho itholamorwalo
124_0234 ka ho ya moketjaneng ono
124_0235 le ha ho qaqisitswe ka
124_0236 o ke ke wa etsahala
124_0237 ya tsitsinngwa ke diheshana bomafisa
124_0238 mekotla ya mashala ka veneng
124_0239 na le boipelaetso bo isteng
124_0240 d ho hokahanya le ho
124_0241 etshweu e lebanta le letsho
124_0242 habo tsietsi ba ne ba
124_0244 di ka qhalakanngwa le di
124_0245 ba chikano ya sireletsang le
124_0247 khampani ya ba mmalwa e
124_0248 wena moetapele wa setjhaba le
124_0249 kgele a tsoha a tlola
124_0250 ya emia e na le
124_0251 eo ho ne ho sa
124_0252 ho bapiswa le ho a
124_0254 le ho re kumela ka
124_0255 sa le ka madungwadungwa ke
124_0256 senyehileng e senya thaere ya
124_0257 e dumelletswe ho ka eketsa
124_0258 ha re ne re ilo
124_0259 le ho phuthollwa ka bo
124_0260 se di sebedisetsang ho kenyakenyana
124_0261 o ne a ikete ho
124_0262 ho batjhana ba ka ba
124_0263 ba tsamaella ho ya boitshwarong
124_0264 ne a teane le ditshita
124_0267 nyamela ho ba ntidi ha
124_0268 hee ke re o nkgitlile
124_0269 mmetla o kgola o e
124_0270 o lakatsa ho tsebiswa le
124_0271 united states coast
124_0272 le tjhaba le dikela ba
124_0273 ya tuma ka ho reketla
124_0274 ne e le e ke
124_0275 dipuo ho phatlalatsa le ho
124_0276 kgauhelo e ne e le
124_0278 haebe o kile wa fumana
124_0279 ka dinkgo ho ya sedibeng
124_0280 sa rena le ho rena
124_0281 moro kgotla ha o okolwe
124_0283 o na le mosadi le
124_0284 ke yang ke ne ke
124_0285 le kwae ke motswako wa
124_0286 bofentefente ha ba sekhweshemetsa ba
124_0287 a le mahlomoleng a ho
124_0288 ba bangmme se kaba le
124_0289 eo ho bafuputsi ba ikgethileng
124_0290 se ke wa be o
124_0293 le ho fepela basebedisi ba
124_0294 ba e lahlele lebokoseng la
124_0295 ho ba le dvt ba
124_0296 o shobile a o entsemotloutlwana
124_0297 le sireletswe le ho notlellwa
124_0298 ka hodimo ha ho tshwauwa
124_0299 la ho ya le ho
124_0300 di ne di sa mo
124_0301 sekgutshwane sa akha onte ya
124_0302 boitjaro ho tshepahala ha botsamaisi
124_0303 ke ne ke sa mmone
124_0304 se makatsang ke ho re
124_0305 ho nyaroha e e bo
124_0306 ke la dipoding o ne
124_0307 le kgelohang tokelong ya bohato
124_0309 o itahlele ka setotswana ka
124_0310 ya ka etsang mahlabisadihlong a
124_0313 kgamahaholo o neabona e lentho
124_0314 mmakgama a itshela ka dikgapha
124_0315 eo a qetileng matsatsitsatsi a
124_0316 ho tu ke sitwa ho
124_0317 ya mmokelli eo wa dikoloto
124_0318 ntlokgolo ya icd e pretoria
124_0319 faotsweng ab di na le
124_0320 ha o ne o re
124_0321 iv na ho na le
124_0322 e ka bolokwang e tswella
124_0323 o se a tsohella ha
124_0324 ya mmakoma a sa lobe
124_0325 a maholwanyane e be a
124_0326 o ne o ipoledisa ka
124_0328 digital signal processing
124_0329 le lengata ho ya ka
124_0330 letsema o ne a se
124_0332 ha o a dumellwa ho
124_0333 memorandamo le articles of association
124_0334 o a pepeseha o a
124_0335 ya matarapane o ne a
124_0336 ne a bitsitse mmantsopa ie
124_0337 mo apese ka mapheo manong
124_0339 sa fase ntja eo ya
124_0340 se omeletseng se sa fumaneng
124_0342 le ho lokisetsa ho tsebahatsa
124_0343 di ka nyoloha ha e
124_0344 sekametseng ho tshabiseng ka ho
124_0345 ya ill e na le
124_0346 e thehilweng bodumeding le dihlopha
124_0347 ya referense eo o e
124_0348 ho re ba re kwetletse
124_0349 ho ya bosoleng ho ya
124_0350 deedsweb ka ha ho na
124_0351 ho ka iteangwang le ba
124_0352 ba re ke ho qetello
124_0353 aparetseng e ye e re
124_0354 ya momahanyo ya dikgokahanyo le
124_0355 a se hlokang bophelong ba
124_0356 sa ka ka ba le
124_0357 a lekanang mahlakoreng a mabedi
124_0358 na ntwa e ka fetelletsang
124_0360 ka ho ya ka minerale
124_0361 a se a boletse a
124_0362 ho eteletsa le ho ntshetsa
124_0364 ke diyanokeng di bapile le
124_0365 recent common ancestor
124_0366 ho ya ka pilir o
124_0367 mmasepala o ne a sisintse
124_0368 dithunya le ditanka le difofane
124_0369 nehawu le psa e le
124_0370 e se mohlokomedi ya ka
124_0371 ya mohoma sa basa ya
124_0372 award winning authors
124_0373 ha e a kgotsosofala ngwaneso
124_0374 a ka masakaneng a ngolwe
124_0375 ho petha ho ya ka
124_0376 treaty organization nato
124_0377 ha e re e a
124_0380 a teetswe hare ke ditsietsi
124_0381 ya mahaeng le maphelo a
124_0382 ya pa role ya ho
124_0383 di rarollwa o se ke
124_0384 world trade organization
124_0385 sethetsabadisana ha ho bolelwa banana
124_0386 le dipelaelo ka yonamabapi le
124_0387 e monyenyaneyena o ne a
124_0388 ho se be lengwana ya
124_0389 bahale ba furallwa kebasadi ho
124_0390 e lebi sang tlhalohanyong ya
124_0391 ako lese ho itshela ka
124_0392 k h r mapenshenara le
124_0393 toko ha o mamele se
124_0394 e tidinya ha engwa ka
124_0395 o a thatafallwa ha a
124_0396 ka nqeng ya ho kwetelwa
124_0397 o ne a dula a
124_0398 esele ke a o nyonya
124_0399 a mmatle a mo tlise
124_0400 o ne a sa robale
124_0401 dikhabinete ho betla mapolanka ho
124_0402 mthethwa o ne a sa
124_0403 cup winners cup
124_0404 ha o sa re natsa
124_0405 katlehong kgatelopele e ke ke
124_0406 leaho e ne e le
124_0407 o be le dikamang ka
124_0408 o ye a be le
124_0409 mo re qa kgetlo la
124_0410 nolofatsa le ha ho le
124_0411 ha mokomshenara a se a
124_0412 sa sebetseng iteanye le ba
124_0414 o feleheditsweng kemoya obatang le
124_0415 ba arohana mmileng o fetang
124_0416 hemela a ba a mo
124_0417 ke re ha ke no
124_0418 ho tlolapele ha re sa
124_0419 bohloko ka ho fetisisa ke
124_0422 ha se mara ha se
124_0423 ya hatelletsweng a se a
124_0424 mosadimoholo mmadiepollo o ne a
124_0425 my nou te doen staan
124_0427 ho natefelwa ke dingolwa e
124_0428 e so arabelwe ka ho
124_0429 joint initiative on priority skills
124_0430 e a amoheleha ya ho
124_0431 ha o hlajwe ke dihlong
124_0432 malomafodisa o ne a sa
124_0433 ntumella ha ke re o
124_0434 tshwaetswa ke hiv le aids
124_0435 mohloding le ha e le
124_0436 ka nate e sa tiyang
124_0437 r j r masiea e
124_0438 ba ne ba fetotswe ke
124_0440 di a dumellana mo mahano
124_0441 le ha e le lesobanyana
124_0442 rejisetara le sehalo di sebedisitswe
124_0444 a sa tahwa o ne
124_0445 e ne e se lekwala
124_0446 ho re na e be
124_0447 balekane ba o r tambo
124_0449 mathakang ba rongwa ba hlatswakang
124_0450 ya ka e duma ditshepe
124_0451 dithupello le ho tlatsetsa ditataisong
124_0452 le ho qadisa diprojeke ke
124_0455 a sa tsebenthoeo a e
124_0456 o a bonahaletsa o ke
124_0457 oo ho wona o hlahisang
124_0458 e sootho e mabanta a
124_0459 ngola ka mongolo o makgethe
124_0460 inyatsa ha e sa le
124_0461 a ho kholomo a le
124_0462 ha o le manganganyanatjena ke
124_0463 ha ba le kgutso ka
124_0464 british east india
124_0465 a ho qeka le ho
124_0466 o ne a re file
124_0467 ha bofutsana bo e ja
124_0468 mo hauhela a re ho
124_0469 electron degeneracy pressure
124_0470 e e ka re ke
124_0471 a fotse le ha ho
124_0472 phetwa e be mmohi o
124_0473 e na le ho re
124_0474 mosha o ne a ba
124_0475 o ne a dutse ka
124_0476 na e fela o arabile
124_0477 wa ikahela ka ho sa
124_0478 rugby union team
124_0479 a o fe resiti e
124_0480 ba ya dikolong ba hlometse
124_0481 le dikopanong le dipitsong le
124_0482 ke tshepo ho aubuti thabang
124_0483 le ho tsoha o tsohile
124_0484 kantle e ne e le
124_0485 re a thaba ha ho
124_0486 e ba ho na le
124_0487 ho le ha e le
124_0488 sa tshepahaleng ke tshokelo e
124_0489 o ahlame o mo tonetse
124_0490 a timellwang le ke ho
124_0491 ha a ka a arabela
124_0492 e ye e be ka
124_0493 nbotsa ho re na ke
124_0495 dithoko di atisang ho ba
124_0496 tswelapele ho tobana le dipephetso
124_0499 ke ne ke ipona ke
124_0501 didumatshwano le mepeletotshwano mahlalosonngwe malatodi
124_0502 le ananela botebong ba maikut
124_0504 hong ho dumella mmadi ho
124_0505 o e na le letshollo
124_0506 ha e sa le a
124_0507 weleng mekgeng e hlalositsweng ka
124_0509 le ha ke na le
124_0511 ha ho ne ho itswe
124_0513 hule pay as you earn
124_0514 leke ho mo nyokola ha
124_0515 ho se ho se na
124_0516 b le ho ya c
124_0518 a be a mo kgothaletse
124_0519 ba ne ba le bafubedi
124_0521 be le tsamaisano le bili
124_0522 ke ne ke re ho
124_0523 be di mela manaka bo
124_0524 di ka be di thibetswe
124_0525 ho ka ama sabsidi ya
124_0526 ho balehaempa ba mo lelekisa
124_0527 memorial park cemetery
124_0528 botoro le tjhisi mabejana difeme
124_0529 e ne e le bosiu
124_0530 a ne a le siyo
124_0531 a lekanyetsang ka ho ngolla
124_0532 be borapolasi ba kamoso o
124_0534 ho ntefa bokae ha ke
124_0535 re na ke a mo
124_0536 le lefubedu t w d
124_0537 la botahwa le se le
124_0538 a fetang le a sefefo
124_0539 nwabeleditse ba habile kalaneng ha
124_0540 ke ha ho qalwa ka
124_0541 o re ntaramane ee ya
124_0542 ba nyetseng ke mampetje ba
124_0543 ra o tlohela o sa
124_0545 ka botenya ho ya ka
124_0546 ya ka le ba bohading
124_0547 ya cashier e be o
124_0548 re ha o sa mo
124_0549 e le sephoko a kgelekenya
124_0550 be wa ba wa mo
124_0551 le ho se hlomphehe ha
124_0552 roman catholic priest
124_0553 failed verification date
124_0554 ditoloko le ho theheng ditataiso
124_0555 ba ho elellwa makgabane le
124_0556 la nteka la nkenya ditabeng
124_0557 ka ho re o mo
124_0558 t a ba a mo
124_0559 ka se tshwarwe ka ho
124_0560 balehang ho bebofaletsa motshwai ho
124_0561 ke ne ke sa ruteha
124_0562 re ditaaso di tshela mmila
124_0563 ho hlatswa ditholwana le meroho
124_0564 mofubedu o phatsimang le ha
124_0565 alexander graham bell
124_0566 e sa otlolohang polokehong ya
124_0567 v v mmapelepele e ne
124_0568 theotsweng ke moadimi le ho
124_0569 ke ha a le haufiufi
124_0570 polish lithuanian commonwealth
124_0571 ruuwa le ho laolwa ka
124_0572 e se e kgutletse ka
125_0001 e raduweng e se e
125_0002 mo tshabang ho nkgisetsana mahafi
125_0003 o ka tlasenyana koporo ho
125_0005 mme o sehe mola qetellong
125_0006 john maynard keynes
125_0007 tjhetjha a ba a tjhetjha
125_0008 re ba memmeng ka ho
125_0012 ya mo hatelletseng e ba
125_0013 sa dikulo difensetereng le monyako
125_0017 national security council
125_0018 ya vat vendor search ke
125_0029 ba ke ke ba jala
125_0030 o sa dumellwang wa ho
125_0031 ho ya ka bafuputsi ba
125_0037 a re itjhuu itjhuu itjhuu
125_0038 bomolao boikarallo ho ba le
125_0041 na le ho bakang ho
125_0043 a holetseng ba kwalehile ba
125_0046 se phethahetseng setjhabeng le dibakeng
125_0047 developments pty limited le khayalethu
125_0049 be e se e kgutlisetswa
125_0052 e ne e le ka
125_0053 le phokotsehong ya ho putlama
125_0054 mo hatelletseng e ba mohlodi
125_0056 sa cricket ka ho ba
125_0061 bo ke ke ba fetolwa
125_0064 metjha ya kahare ka ho
125_0066 kgomathisetse tshaeno le ho hatisa
125_0069 manane le dinehelano le ho
125_0072 ba mapolasing balemi rui le
125_0074 la phapang eo e a
125_0078 neho sa kahaeba le lerataka
125_0079 le kelohloko e hlokolosi ya
125_0080 baena le dikgaitsedi ke thatano
125_0083 ne ba loha leqheka lee
125_0084 ho ne ho phethesela ke
125_0087 ho ikakgela kasetotswana ho kenyeng
125_0088 ho na le dingongoreho ka
125_0091 yare ha ba kenella ka
125_0094 e sa hlokomelweng ka ho
125_0096 ne e le makejakejane a
125_0098 ka botjhabela ho ho ne
125_0102 o a qeaqea ha a
125_0103 ka matlotlo ao re a
125_0106 o re tlotlolotse re ne
125_0107 dikgomo ha di na motlohapele
125_0108 a se a bina sefela
125_0109 semoya a tsamaisanang le tlhwekiso
125_0110 le lesisithehonyana ho ka phunya
125_0111 underwriter ho ya ka pholisi
125_0112 le ha hothwe ke lenqosa
125_0113 ke semathi se seholo o
125_0115 ho ipapisitswe le melawana ya
125_0116 se saenetswe ke baamehi ba
125_0117 mamenemene ba bolotsana ke maqitolo
125_0118 ho se hlomphehe ha ho
125_0119 united nations peacekeeping
125_0121 ho sa ohlweng le ho
125_0123 ditjhate diphousetara dinepe ditshwantsho diselaete
125_0124 steyn delport a fa mmueli
125_0125 le ho senolwa ha sephiri
125_0129 wa nomora ditlhokomediso le ditemoso
125_0131 ha a ka kgaotsa ho
125_0133 etsuwa ka ho ya ka
125_0135 ke ne ke le bothateng
125_0136 martin van buren
125_0138 qoqwa ho a tshehwa ho
125_0140 t o rekile senomaphodi ledikuku
125_0145 o bohlile ka letheka maru
125_0149 ithutla a ba a re
125_0150 o be o sisinye ditlhahiso
125_0151 ya a le e le
125_0152 ha mokomeshenara wa dikano a
125_0153 great leap forward
125_0155 western european countries
125_0158 e kengwe setempe e be
125_0160 ke na le mathatanyana a
125_0161 hothwe ke lenqosa le o
125_0162 ya o rekisetsang pholisi pholisi
125_0164 ha o se o phethetse
125_0168 re ha ke mametse pina
125_0169 modulasetulo le motlatsi wa modulasetulo
125_0173 ka kaho ya institjhushene le
125_0177 le seroto se sa ribollweng
125_0178 ke re ke moihlwe ho
125_0179 best supporting actress
125_0180 wa tlhware ha di lome
125_0181 se le hopotse ho ya
125_0182 id le ya tshupiso ya
125_0183 karolwana e ntshitsweng koranteng jj
125_0186 african union member
125_0187 republican national convention
125_0190 a behela ba mmokanetseng a
125_0192 ho le mahleke ka hohlehohle
125_0194 ke ke a kgona ho
125_0195 joyene e fedileng ha a
125_0196 kaha ho kgaoha ha botho
125_0197 ne e le bitleng la
125_0202 waseithati ya tshepileng ho itshwarela
125_0204 a tiisa ke a hlapanya
125_0208 ruburiki eo o e fuweng
125_0209 moputswa sa masumu wa dithako
125_0212 ho saena maqephe ohle a
125_0214 pope gregory
125_0219 united nations security
125_0222 a tlohe tekenikonong ya witwatersrand
125_0224 ke sentebaleng ha a ne
125_0225 ho buella setlokotsebe see sa
125_0227 random variable
125_0228 a mesebetsi e ngolwang potefoliyo
125_0229 e utlwahale ha e bope
125_0231 a fumanang mohlahlabuwa a arabile
125_0232 e be e o jesetse
125_0238 le dipotongwane ho re tshiu
125_0242 religious organizations established
125_0243 se e le yabeng ba
125_0244 video game console
125_0246 ba banyenyane a re psa
125_0252 mooki tliliniking e ka marantha
125_0253 e se e le wa
125_0254 na le leqai le ka
125_0256 academy award nomination
125_0257 e methwang ka dimetara e
125_0259 ba ngo le cbo ba
125_0261 junior high school
125_0263 buswa le ho laolwa ke
125_0264 ya ho robalana le ba
125_0265 hobositsweng ka kgoboso eo ke
125_0267 ya ho itshebetsa le ho
125_0268 re se re tsebiswa ka
125_0269 butle ka ho betsa ka
125_0270 ha ho le ba mo
125_0271 ao a ho tshoswa ka
125_0272 ho ka ikopangwa le iucn
125_0273 mokoena akhaonto ya polokelo ya
125_0274 f a ka laelwa ho
125_0275 mohlakeng e ne e le
125_0276 hlwahlwa tjhebelopele le pono e
125_0277 mopresidente mandela o ne a
125_0278 humid continental climate
125_0279 o re o tshwenyana le
125_0280 pope paul
125_0281 e ke ke ya leshwa
125_0282 silika e be ho ba
125_0283 o be o a sebedise
125_0284 di didietse ha di ka
125_0285 e kojwa e sa le
125_0286 le ho se be le
125_0287 ho kenya tshebetsong leano la
125_0288 ba neba e buela sekgukgung
125_0289 bo ne bo methwe ke
125_0290 mdnb le ho rala mekgwatshebetso
125_0291 orbital angular momentum
125_0292 ka menyako e sa notlelwang
125_0293 ho na le mananeo a
125_0294 ya mmeleng o na le
125_0295 se thwasang se ke ke
125_0296 a akgetse setipana sesesweu sa
125_0299 ba lebella le ho ba
125_0300 ka booker t big show
125_0301 ya boqapi e a nehelwa
125_0303 ha a se a bitsitswe
125_0304 kahong ya maitemohelo thekenoloje le
125_0305 moshweshwe moshwashwaila ya e ba
125_0306 o a tshabeha e sa
125_0307 e teletsana ho e henahena
125_0308 ya boitjhoriso ba ne ba
125_0309 international monetary fund le ditheo
125_0310 jo ke eo a kwala
125_0311 eo ke e labalabelang ha
125_0315 atlantic slave trade
125_0316 e tshetse seturupu se se
125_0317 ho ka ba le ngangisano
125_0318 international olympic committee
125_0319 se angwe ke dikokwanyana lediphoofolo
125_0320 of sa hpcsa e sa
125_0321 phephetso eo re tjamelaneng le
125_0323 le o sisintseng o ka
125_0324 national geographic society
125_0325 hokelwa e le ho kgutlisetsa
125_0326 ya boqwetha e a roropa
125_0329 toropo tokotoko ke eo o
125_0330 o ne a mo ja
125_0334 boramapolasi ba ntseng ba hola
125_0335 be ke le hlokela tlhompho
125_0336 ba re le dipampiring e
125_0339 ditholo le difofu ho bakileng
125_0340 american nobel laureates
125_0341 ka la moshweshwe moshwashwaila ya
125_0342 phamokate din a le ketsahalo
125_0343 cite book author
125_0345 i e tsolo le qumbu
125_0347 moemanotshi ya ba kabelwamanong ka
125_0348 hehehe ha ke ne ke
125_0351 phahla pinyane ere ka ha
125_0352 ho na le tshabo ha
125_0353 e sa le a fula
125_0354 ba ne ba ka qoqaqoqa
125_0355 na ha o se o
125_0361 diforomo ha di fumanehe khomputeng
125_0364 kobontle ya ho apolwa e
125_0365 e se e bolailwe kematetetso
125_0368 porafete ho ka ipehwa ho
125_0370 ke ke ra swabela ho
125_0374 e ne e se lefitshwana
125_0375 ya kgakollo ha e nkele
125_0376 scottish national party
125_0378 des arts et
125_0380 a jwetswa o bonwa ka
125_0387 ya diteropo urban renewal plan
125_0388 ha e lelefapha lathuto le
125_0390 e labalabelwang ya lerato ya
125_0392 moteaphala o thontswe ho ba
125_0393 fatshemoo sa mo hulela ho
125_0395 o hlahlathela felleng o le
125_0398 ho fanwa ka sona ka
125_0399 ha o ka wa ja
125_0401 a be le thahasello ya
125_0402 national inventors hall
125_0403 be ke tsosa dibata masene
125_0407 le ho kenngwa tshebetsong ha
125_0408 ha ho na le ditletlebo
125_0410 ka tsebiso ya koranta ya
125_0411 o itlama ho se behe
125_0412 tempuweng le ho saenwa ke
125_0415 ya sebele ka puisano le
125_0416 ka motes wa bahlomphehi wa
125_0417 ba be le tjantjello ya
125_0418 tb e ne e sa
125_0421 o re tsosetsa maqeba a
125_0424 ya taelo ya tshireletso ya
125_0425 romelwa ka poso e rejistarilweng
125_0426 united states president
125_0427 puong ya lapeng ho ya
125_0429 kgolo la puso ya gauteng
125_0430 wa tleliniki ho o fa
125_0432 modula le ho diehisa ho
125_0433 haeba o le bookameding bo
125_0434 manager ka ho ya ka
125_0435 a emetsefeela ho re diphala
125_0437 qhoba bosiunyana bo le bongnyana
125_0438 le ho hlekefetswa meyeng maikutlong
125_0440 a nkilwe ka boinahanelo ba
125_0442 ho lekane ke ne ke
125_0443 yaba o a thola ho
125_0444 fekese ha ho se ditefiso
125_0445 di ka fihlelwa ka ho
125_0447 tsemashome a robedi ba sebetsahoba
125_0449 e se e le mesuwe
125_0451 ya mophedisuwa e tlatsitsweng foromong
125_0456 ka kgang ka ho le
125_0458 le ha ba e na
125_0459 e le ha o itshola
125_0460 bolauwe ka sehloho lebakabaka ke
125_0462 ha le ne le sa
125_0463 ke nku ha a lle
125_0464 o se o hlahisitswebakeng sa
125_0466 o se a mo kgorohela
125_0467 sa ntome le ho ntoma
125_0469 e kgolohadi le e bolokilweng
125_0470 re ha le sa mpatla
125_0471 theho ikgapela setjwaba ka ho
125_0472 robetse mealong ha o sa
125_0473 ba bararo ba ka pakang
125_0475 american television actors
125_0476 ya behwang setulong kajeno ke
125_0477 eo a siyang a e
125_0478 di ka sibollwa ka ho
125_0479 ho ya ka le ka
125_0480 ne ba re o thothela
125_0481 fetohile ha ba bohading ba
125_0482 ha a ne a kudiswa
125_0483 o ne o se turu
125_0484 ka ho fetesisa ke ya
125_0485 roman catholic archbishops
125_0487 he a tlelwa ke ho
125_0488 ke ba phethisang ditshepiso ba
125_0489 a futhumetseng ho tola ka
125_0490 new south wales
125_0491 ka tlung eo le e
125_0492 a be a sa phethise
125_0493 b e ka fetisetsa ho
125_0496 art deco buildings
125_0497 o bolokolohing ba ho ho
125_0498 ka pelepele boitekong ba ho
125_0499 dineo na o ne o
125_0501 se phethe tsweng se setle
125_0502 moiteding bashanyana ba ketimisa dikgamelwana
125_0505 di a baleha o sa
125_0506 ya e mail mosebedisi a
125_0507 di a bulwa di a
125_0508 nyalanngwa ha di rutwa le
125_0509 ralph waldo emerson
125_0510 ya ho theha mbm e
125_0511 e le lekomonisi baokamedi ba
125_0512 samane ka seqo ho motsekiswa
125_0513 ke eo e feletse ka
125_0514 ho shejwana ka la moleka
125_0515 e menyenyane ha e na
125_0519 mawa a hlophisitsweng ka tatellano
125_0520 bitla la ka le ka
125_0521 ka meqeqekohadi ya mekotla ya
125_0522 rolling stone magazine
125_0523 world heritage sites
125_0524 o phatladitse masedinyaneng dithelevishineng le
125_0525 e thehileng bodumeding di fbo
125_0526 fapohela kantorong ya mosebeletsing wa
125_0530 mabinabine a pelo ya ka
125_0531 fact date september
125_0533 iv ho dilatantle le thekisontle
125_0535 north american continent
125_0537 saint lawrence seaway
125_0539 federal aviation administration
125_0542 ho jareng kidibitla e kanakana
125_0543 nyalang ha rakgadiae a re
125_0544 tsamaelanang le tjhesehelo e yeng
125_0545 a mo sotla ka ho
125_0547 mmaditaba ha o swabe ka
125_0548 ka ho teneha tjhe le
125_0555 ya diflete le c ho
125_0556 e ka tshehetswang ka h
125_0557 cbnrm e ke ke ya
125_0558 sitiswa ke hona ho nwa
125_0559 states military academy
125_0561 eo ho nkuweng sampole ho
125_0563 ata a ko qoqe ka
125_0567 thotsela sa mmedikane ke a
125_0569 e lekgatheng la lephethi e
125_0571 eo a sa e boneng
125_0574 le barwetsana ban e ba
125_0575 matekwane na ha se ka
125_0577 le mphuthileng la mpontsha leratole
125_0578 ka etsuwa ha ho hlahile
126_0003 sa ho kopanela tekenoloji phetisetso
126_0017 ba sa tshepahaleng ke tshokelo
126_0019 red blood cells
126_0022 ho na le ba binang
126_0024 john von neumann
126_0027 a e ka ballwang ho
126_0030 ho ka tshohlwa le ba
126_0032 calcium le phosphorus e ka
126_0033 tieho ho ya ka balanse
126_0037 lefellwang ho the director general
126_0046 o lekanyetswang o hlaloswa ka
126_0048 kennedy space center
126_0051 o beilweng ho fa dipehelo
126_0053 o ne a nyetse sethepu
126_0054 pampitshana eo e be se
126_0057 rational choice theory
126_0060 a behwe ha a behwe
126_0064 hloboha ho mo hloboha ka
126_0065 le ha ho se na
126_0069 ho ya tiisetsa le ho
126_0072 se hetse sa ba sa
126_0073 yah ore asasemente e se
126_0081 dikgoto disenyi ho ata ka
126_0083 western classical music
126_0085 ha ke a tlela ho
126_0087 ya databeise e ka sebediswa
126_0089 e ka nnang ya unwa
126_0091 osama bin laden
126_0092 african development community
126_0096 natural law party
126_0097 na le neo ya ho
126_0098 chinese civil war
126_0107 ho ahlola ka ho hirwa
126_0111 martin luther king
126_0119 ho ke ke ha qojwa
126_0122 royal air force
126_0127 accident statistical system samrass o
126_0128 e qethohile edumella matswejana ho
126_0130 bolokolohi le ho ikutlwahatsa ka
126_0131 bohlokwahadi ya ho sebeletswa ka
126_0133 le tshwerweng ha e le
126_0138 be o mo lakaletse mahlohonolo
126_0141 fact date june
126_0153 o ne a sa itlwe
126_0155 e qadile ho o tshwenya
126_0156 moeletsi a ka ba le
126_0159 holy roman emperors
126_0161 ha ho le hobe o
126_0163 a be a qetelle a
126_0167 states environmental protection
126_0168 cold war era
126_0170 los angeles county
126_0171 ne a ye a kgonye
126_0172 ba se ikutlwe ba phahametse
126_0173 ke e tshepahalang le e
126_0176 ka ho phahamela ho hlwibila
126_0177 a se a sa ye
126_0180 swiss german dialects
126_0181 ditho ya inthanete member online
126_0182 ne a sa phetse ho
126_0184 ho thehilwe ho arolwa ha
126_0187 cell lung carcinoma
126_0189 british army personnel
126_0190 nuclear magnetic resonance
126_0193 ha e nnqwe e tshetse
126_0196 lehlanya a se ke a
126_0197 ho tsamaiswa ha mehlape ho
126_0201 eo a reheletsweng kayona ha
126_0204 boiteko bo etswang ba ho
126_0208 cannes film festival
126_0212 ya bohlophisi ya ho foreima
126_0214 se le sa nkge leseporo
126_0215 ho re mafanetha ha a
126_0216 ya sekiri sa ho hama
126_0218 ho ke ke ha hlokahala
126_0219 ha eo a sa hutse
126_0223 narrative a re qoqela ka
126_0231 red hot chili
126_0232 lesotho e ne e le
126_0233 ha ho ne ho phelwa
126_0236 siilweng ke ntata diepollo a
126_0237 senyesemaneng le afrikanseng ha ho
126_0238 na ha o re tsohella
126_0241 e kgahlehang tjhabeng se setsho
126_0243 flagship radio station
126_0246 ya sehlekehleke sa deidro e
126_0248 o entseng se sekaale ha
126_0249 kansas state university
126_0250 a ka tshireletswa ke paja
126_0251 ke mathela ho sylvester eo
126_0254 motsana wa menkgwaneng o qetse
126_0255 mohwebi mohlahisi mopotlakisi le mofetodi
126_0257 le sa duletseng boshof re
126_0258 o mpontshitse ha e le
126_0259 ke eo mo a emeng
126_0263 european central bank
126_0266 titjhere masitha o ne a
126_0268 di tsamaise di di laole
126_0269 ao ke qetang ho o
126_0270 ka morao ho ditherisano le
126_0271 a tshwaye karabo ya pele
126_0272 population growth rate
126_0273 nkatana ho ikgona ho kgora
126_0274 ya mmino ya medumo ya
126_0275 e fanweng di a fumaneha
126_0276 bo be bo mo timelle
126_0277 a diha kahlolo kahlolo eo
126_0283 le ha a le monyenyane
126_0284 o phethelwa ho o hlahlamang
126_0286 ba ho o aba o
126_0288 a rwetse masale a fubedu
126_0290 le kgolofalo ya ho ya
126_0291 san diego padres
126_0292 ba lwantshana le mashodu a
126_0297 tleloupung le mmapeng wa atlelase
126_0298 second continental congress
126_0302 ya ka ya ho re
126_0303 ne e le ka phirimana
126_0306 ne e le makaroff nthwe
126_0307 di sa fahlwa a kokosile
126_0313 kgarafu ya sekopo ho raohile
126_0314 ba dikalaneng ba mo tsebileng
126_0317 bo bottle le ho tataisetsa
126_0318 tsebiso ofising ya moporemiri di
126_0319 ha le qhibidiha dithabeng ha
126_0322 bat la e se na
126_0323 a barui ka ha e
126_0324 a mo nyaretse le fensetereng
126_0325 ke se ke ka kgoba
126_0326 se ikamahantseng le makgabane a
126_0327 e le dillo le ditsikitlano
126_0328 le ho bitsollakaka bakgotsi ba
126_0330 ho se ho tsamauwa ka
126_0332 sesupo sa ho inehela ha
126_0333 tjheke e romelwang ka ho
126_0334 e re kg kg kgrr
126_0336 a qalelle ho rohakana a
126_0338 kgetholle ka morabe le ho
126_0342 otlolohileng le ha e na
126_0344 ke kutlwi siso ya ditlhokeho
126_0347 ho ba sedi mehopolong e
126_0348 a tshwaye a ipapisitse ka
126_0349 ba tsepame ba otlolohile ba
126_0350 eo di mo tshwarang ho
126_0352 piet o letlaila ha o
126_0353 makaleng ao le mafapheng a
126_0354 sa hakala sa mo qhautsa
126_0356 o kenyeleditseng mawa a hlophisitsweng
126_0357 borotho bo bosweu reisi e
126_0358 mosebeletsi wa laeborari ya heno
126_0359 united states code
126_0360 tampa bay buccaneers
126_0361 e ipatileng tb e tsohileng
126_0362 se lokolohileng bofumeng le bohloking
126_0366 di kenyelletswe le ho hlabollwa
126_0368 european union member
126_0369 ba batshehadi le ba batona
126_0373 referense ha ho se ho
126_0378 ba ikgathollangka ho ithabisa ka
126_0379 manol lwa ka bo tlalo
126_0381 mmidimidi oo ho ne ho
126_0382 lemotsotso ho ya kamooseroki sesusumetsehangkateng
126_0383 se sa ka sa itshwara
126_0385 a be le phehisano le
126_0386 oxford university press
126_0391 ya ho falwa le ho
126_0393 a ka a mpotsa ke
126_0394 ka kgang ha ke re
126_0396 o ne a rerisana le
126_0399 sa fellang e ka ho
126_0401 se sa thuswe ke moemedi
126_0403 mafubedu a re tlere setebele
126_0404 a bokolla seboko se hlomolang
126_0405 ya botegniki patlisisong ya dikotsi
126_0406 resources ke ha mekgolo leaves
126_0407 tshekatsheko e hlahi sitswe ka
126_0408 islamic conference members
126_0409 ke thabile hakaale ha e
126_0410 ommeng le matlalo le di
126_0412 ba shwelletse mokuleng ka boomo
126_0415 di billiard ho haha le
126_0418 ba ho kenyetse thelefono ya
126_0420 a re ake uke ichi
126_0422 di na le sethethefatsi se
126_0424 ka usa britain le dinaha
126_0427 monokotshwai ha o butswe ka
126_0433 ditemeng e jere molaetsa o
126_0434 e nkuwa e le thekenoloji
126_0436 ba ne ba tsheheditse ho
126_0437 a laolwe ke gcis ba
126_0440 frank lloyd wright
126_0441 ya ho rafa ya ho
126_0442 naletsana ya ka ra shebana
126_0443 ho kopana ka ho intsha
126_0444 mekutung ya kontinente ya ho
126_0445 ha o ne o mpolella
126_0446 tafole o se ke wa
126_0447 ka ho ya ka dikgohlano
126_0448 ba ho kgwaritsa ba ho
126_0449 be le se le ya
126_0450 a tshwaetsang a ka fumanwang
126_0451 ho ikisa ntlwaneng erekaha a
126_0452 di itshetlehe kamanong ya dibui
126_0453 ha e na ho tshetswa
126_0455 eneng e le ho qobisa
126_0456 belehwang ba e na le
126_0458 letangwana la ho sesetsa ba
126_0461 a iphetapheta e tswile lekoteng
126_0462 a ke dithothokiso b ke
126_0463 new orleans saints
126_0465 e sa tshwaneng le o
126_0466 hlokehe ha ho se ho
126_0467 algebraic number theory
126_0468 ha moithuti a hlahisitse le
126_0469 ba sa e thabela dieketseng
126_0470 e be ba ya le
126_0471 o lokile ba crime stop
126_0472 acquired immune deficiency syndrome eo
126_0473 le ho arolelwa ka ho
126_0474 ho ba boimanyana ho le
126_0475 a ferekane a sa itsebe
126_0477 a sa utlwusise ho re
126_0478 le mosebetsi wa profeshenale wa
126_0479 ba mo thodise ba re
126_0481 ha ho na motho ya
126_0484 a re habore a sa
126_0485 a theohe koloing eo ya
126_0486 ha ba ne ba e
126_0487 e be o a e
126_0488 la haeka nakoeo e le
126_0489 le akgele ka sefutho sa
126_0491 mabophe ba ne ba emeletse
126_0492 ho khanseling ya borutehi le
126_0493 ya ikokobeditseng ya ithobileng o
126_0494 new england patriots
126_0495 high middle ages
126_0497 ho o nahanisisa ho o
126_0500 ka bongata tshebe diso ya
126_0501 moahlodi e moholo a ka
126_0505 katoloso ya ho hirwa ha
126_0506 re soqete ho foroma mmaditaba
126_0508 le ha se ne se
126_0509 baheso le baeti ba hlomphehang
126_0511 e fe e tsamaiswang ke
126_0512 ka di ke ke tsasebedisetswa
126_0513 tima o ne o le
126_0514 id ya morekisi le id
126_0515 magnetic resonance imaging
126_0516 o ye a re o
126_0517 bo ne bo hlomola ho
126_0518 ke ne ke sa tshwanela
126_0519 ditswejane a itahlela a sa
126_0520 eo o e badileng qotsa
126_0521 o motjodi o tono se
126_0522 e lekolwang ke bookamedi bo
126_0523 ba bane ba hlahelletseng ka
126_0524 se tlisang tlhonamo ho ntatemoholo
126_0525 ba be ba mo amohele
126_0526 amanang le kalafo le ditjeho
126_0527 greek orthodox church
126_0528 ka ho mo fa bolekana
126_0529 ka tlhapi le dinawa le
126_0530 ha se eo a mo
126_0531 ho finyellwe le ho qhalanngwa
126_0532 le lekgutlajwale o se a
126_0533 wa ka ya bitswangsentebaleng o
126_0534 e se e le shwalane
126_0536 se ba ipehileng ka bo
126_0537 ke sefelapelwana ke tenwa ke
126_0538 a ne a ritsitse le
126_0540 le beta pooho ha o
126_0541 bo ka kgonwang ho lefellwa
126_0543 di cc ha di tshwarisi
126_0544 aitlhothatlhotha ditlhotse a tshematshema ka
126_0546 le ho fapoha ho se
126_0547 ke ditshita le ha e
126_0548 ba tsubang ba ba le
126_0549 khanselara ya boemedi ba tekano
126_0550 sephethong se ebeng se sa
126_0551 labo o ne a ke
126_0553 wa ho kgathalla le ho
126_0554 e potang ka kae ee
126_0555 ne a e na le
126_0556 a ke a o jelle
126_0557 di batla di sa loka
126_0558 seterateng a ne a bonesitse
126_0559 le ne le sa nkemele
126_0560 wa potso e telele ya
126_0561 le se ka fetofetohang ho
126_0562 ka ka e thabelang e
126_0563 sekgalekgale boinyatso le ho jariswa
126_0564 wa ho ba joki o
126_0565 ha ho na ntshunyekgare e
126_0567 feedlot fektri ya ho prosesa
126_0568 ha e i kemiseditse ho
126_0569 ya ketelo ke tlelaente e
126_0570 di e hafaka e ne
126_0571 ke lakatsang ho iphelela le
126_0572 ke ne ke tsamaisana le
126_0573 mehlolo ha ho thwe mehlolo
126_0575 mafelo a veke ho sa
126_0576 ho ka akanya ho re
126_0577 ne ke sa swaswe maoba
126_0578 ho be le ngangisano le
126_0579 ne a se abile a
126_0580 madiba ho psha a matala
126_0581 e ne e le lebelete
126_0582 ho tshwanelehile le ha ho
126_0583 ho ya ka mooba mo
126_0584 le ho kopakopana ka bobona
126_0585 ie ho di qhaqholla ke
126_0586 letsatsi la ho qetela le
126_0587 a hafa ka nkatana mamohale
126_0588 ha le thakgiswe ke ho
126_0589 ne a kwalletswe bosiung bo
126_0590 a mohiruwa a a kokobela
126_0591 o se ke wa tshoha
126_0592 matlakala ao o a bokelletseng
126_0593 ne re se re sa
126_0594 bohlano ha o emise o
126_0595 ho boha ke tshiya ya
126_0596 kwatsi ya bosollahlapi kgodumodumo mofetshe
126_0597 computational complexity theory
126_0598 montsheng o se a nyetswe
126_0599 ne e ba ditsheho ha
126_0600 be le ya mo sitisang
126_0601 a ikgakanye a balehela ka
126_0602 ho ne ho hlakile ho
126_0603 ke lebale ho tu ka
126_0604 e totobaditswe ka botebo mohatong
126_0605 ne a se a elelletswe
126_0606 internet relay chat
126_0607 e ka shadingwang ha ho
126_0608 ba leloka boa o amang
126_0609 ho latelwe ho sayeng ka
126_0610 ha e sa le wa
126_0611 ya mebaraka ba ka a
126_0612 mofepedi ha ho sa be
126_0613 ne a di tsebile le
126_0614 ho ikokobetsa le ho se
126_0615 ho ka be ho le
126_0616 o be o fane ka
126_0618 ho ikgetha ho disosa le
126_0619 lelapa la abiele lelapa le
126_0620 ha e na tlhophisetso eo
126_0621 ho sosobana ha diaparo le
126_0622 western united states
126_0623 wa albert montasi sweni o
126_0624 e ka ho na le
126_0625 sa foleng a holofatsang a
126_0626 tekanyo ya kgolo ya moruo
126_0627 wabatho a ferekana le ho
126_0628 sa lekgala le babang e
126_0629 ne ke se ke phefomolohela
126_0630 o se a fetotse mereto
126_0631 ho ntlafatsa tatso ya dijo
127_0001 o e kolotwang ho ya
127_0004 a totoba ho ikisa ntlwaneng
127_0005 malabulabu di aperwe ke makgoba
127_0006 a ba le temalo bokong
127_0007 ejamethinya o ne a sa
127_0008 ka ha ho nehelanwe ka
127_0009 le se ke la hlora
127_0010 mokgatlo wa tsoseletso ya boitshwaro
127_0011 o halefile e le ka
127_0012 la karohano ya ho ya
127_0013 ka ho tlabola selekane le
127_0014 pope innocent
127_0015 ho na le tlatseletso e
127_0017 ka lehlohonolo ka iphumana ke
127_0018 ka e a thulama ke
127_0019 a b c ho belaela
127_0020 ha teboho a ne a
127_0021 american jewish people
127_0022 ha bakopi e se e
127_0023 sa ho re tsekiso a
127_0024 ke mo tadime le ho
127_0025 ho tsamaisa le ho phethahatsa
127_0026 di be le makgetha a
127_0027 eo hothweng ke hopahete ha
127_0028 ho ikenya lerapo molaleng tjee
127_0029 wa boithaopi o bontshitsweng ke
127_0030 ya ho bopa le ho
127_0031 se ke wa qalella ho
127_0032 e ananetsweng e na le
127_0033 needed date august
127_0034 social democratic party
127_0035 hakana ke o jarela mankokwana
127_0036 e ne e le yonatabataba
127_0037 following world war
127_0038 ntho di hana ho fela
127_0039 ha ka le hlahlamang o
127_0040 ba be le boikemelo le
127_0041 ya mdnb le ho rala
127_0042 ka be a sa hlahelwa
127_0043 menngweng ka boithaopo ho etella
127_0044 ya bodudi ba saruri ba
127_0045 a ne a re o
127_0046 a re phamo mokotlana wa
127_0048 ya monyemo yafapanyang dikgarebe le
127_0049 ho kgetheha tekanyo ya ho
127_0050 bokudi ka ho fapafapana matoto
127_0051 free software foundation
127_0052 re ne re se re
127_0053 ao a a bolaileng ka
127_0054 ho division liquor product stellenbosch
127_0055 le e na le baemedi
127_0056 lesea a be a se
127_0057 ao ke a utlwang ka
127_0058 diphula le diphulana dinoka le
127_0059 ne re hlaselwa ke dinokwane
127_0061 ne a se a hobotse
127_0063 ha le tjhaba ke phutha
127_0064 ho ya ka metheo le
127_0065 ho mawatle o o hloloheletswe
127_0069 kgatello e phahameng ya madi
127_0070 rejise tara le sephetho di
127_0072 a keke a boloka ho
127_0074 le ke le atlehe v
127_0076 mope leto di ngata ma
127_0078 semomotela le se amoha tlokola
127_0080 ne e se ho re
127_0081 na le leqeba le hanang
127_0084 batswetse ba kgiba ho le
127_0085 ya tselakgopo sekere ke sa
127_0086 e tshwarellang e susumetsang le
127_0087 e se e hlwedisitse ka
127_0089 universal postal union
127_0090 white blood cells
127_0091 kahisano le a semoya a
127_0092 kgetho ya mantswe e bontshang
127_0093 e ke ke ya transferwa
127_0094 dithotobolong o tshabelefatshe thulare ke
127_0095 ha e fapohe popehong e
127_0097 le ka rarollang tshubuhlellano e
127_0098 b c d o ka
127_0099 o sa rateng le ha
127_0100 buile leha o ka thola
127_0104 bophirima ka botjhabela ho ho
127_0105 swabile nko ho feta molomo
127_0107 random access memory
127_0108 re balella dikhamphani dikhophoreishene bommasepala
127_0109 leonardo da vinci
127_0111 ha e nkwe e le
127_0112 dithuso le ho hlahisa dipalopalo
127_0114 nke ke ka e emela
127_0115 nfl championship game
127_0116 ka itahlelang lemeneng la ditau
127_0118 a re photse ha a
127_0123 ft m long
127_0125 se kenella ho kenyeletso ya
127_0126 ke e fuphula sa phakwe
127_0127 mean value theorem
127_0132 di sa le yo ho
127_0134 ha ho na le tefelo
127_0135 disoseji le makwenya di ka
127_0136 ya diteropo ba iphumang ba
127_0137 ka sasol anglo le bhp
127_0138 le ne le le mading
127_0140 ya mo tsokotsa ya ba
127_0141 e elellwe peleke ne ke
127_0142 thulare le se le itokiseditse
127_0143 imperial japanese navy
127_0146 american fantasy writers
127_0147 seretse se e silafaditseng ha
127_0149 e tlohang le sepolo ho
127_0150 north american free
127_0151 united states naval
127_0152 ke kakatletse lefika ha ho
127_0158 masenkeng ha senyeha ka holong
127_0160 color field painting
127_0161 patlisiso ya botjhutjhisi mekgwatshebetso ya
127_0163 ha ho ya holebilwe eo
127_0166 sacnasp professional advisory committee e
127_0167 ya mahadi eo e sa
127_0169 ke a re ke ba
127_0171 motjhesong wa kamore di latsweha
127_0172 tinare e le mokopu ka
127_0173 ena e na le dikarolo
127_0174 e akaretsang meedi ya dithuto
127_0175 second largest city
127_0176 ya seteisheneng sa sepolesa se
127_0178 takilwe mmapeng wa gis ka
127_0180 sepeketere sa ho laelwa ha
127_0183 australian capital territory
127_0184 ka nicd ho na le
127_0187 jwang ha ho se ho
127_0188 ha ho kgonehe ho ka
127_0192 o sitwang ho a qoba
127_0194 a le thelefounung ho di
127_0197 ha kgahliso a mo fata
127_0198 ha e ba ba ne
127_0202 mmuso wa provense ya freistata
127_0203 drug administration fda
127_0204 o tlabidika a thwene a
127_0205 mophedisuwa e tlatsitsweng foromong ya
127_0209 na le phehello ya ho
127_0212 mekutu ya ho potlakisa kgokahanyo
127_0218 dilamunu dilemone diphaenapole le ditamati
127_0219 dihlooho le di hloohwana ditemeng
127_0220 holetseng ba kwalehile ba sa
127_0221 tshebediso ya matshwao a puo
127_0222 masitha o ne a tshajwa
127_0226 o ka fa sheri wa
127_0231 states army soldiers
127_0233 keletswalo la horemohlomong o ka
127_0237 pepeneng le ho se be
127_0238 e le lekunutu ho inkunela
127_0239 o ne o re na
127_0240 e phethahetseng ya tlotlontswe le
127_0243 e sa le ke na
127_0245 wa tlelapo ya lantjhe b
127_0246 matha le banna ba nyetseng
127_0247 ho sitswa ho hlohonolofatswa ka
127_0248 a sa phefomolohe le ho
127_0249 e kenyeleditse tekolo ya ditlhoko
127_0250 dulellana le ho bitsollakaka bakgotsi
127_0253 ka masela a tafole le
127_0254 eo ba e late lang
127_0257 e duma ka hlohong ya
127_0259 na ke meaoho le ditsha
127_0262 ya o foseditseng ha ho
127_0263 ho ne ho le thata
127_0264 e ne se e le
127_0265 o ne a rapela ha
127_0266 le c dipehelo le dipallo
127_0269 a itholela a re tu
127_0270 major league history
127_0271 kaale e o ngongorehisang ka
127_0272 reactive oxygen species
127_0273 ba ka ke iteletse ho
127_0277 great lakes region
127_0279 tsilatsila ho o jwetsa ka
127_0280 tlalellana di a pakellana e
127_0282 ya ditoropo ho kopanyeletsa le
127_0283 le ntshehetse ha e le
127_0284 ya ditlhopheho le ha ho
127_0285 mo rekela watjhe ha a
127_0286 ya boeletsi re motjheng wa
127_0287 le tjhabile le monatjana ho
127_0288 e be e le ha
127_0289 sa dumele ho ka fefolwa
127_0290 fihlellwang ho e na le
127_0291 ba se ba e kolla
127_0292 ntlhahetseng ha se tabatabelo ya
127_0293 iowa state university
127_0294 o lematsa ntjapedi ha e
127_0295 sireletseha ha ho ka etseha
127_0296 ba ramotse tikolohong ya heso
127_0297 ha e le ho teela
127_0298 hohlola le ho ba le
127_0299 fact date july
127_0300 e ka na ba ha
127_0302 le ho re ho tshabanwe
127_0303 wa mahindu ho hatellwa difeleng
127_0304 autlwe ho bolediswa bokweta bo
127_0305 sa kgatiso ho lesedinyana la
127_0306 le ho ikemela ka hohlehohle
127_0307 be le e ngatanyana ba
127_0309 eteleditsweng pelepele di rerile ho
127_0310 e na le histori e
127_0312 di apostille certificate ke ditifikeiti
127_0313 le ha barata ho nkeletsa
127_0320 ha a ka a mo
127_0321 free trade association
127_0322 ha ke re fara ho
127_0324 chinese communist party
127_0326 rometsweng ka fekse di ke
127_0329 diphofu ha ho sa fihlelwa
127_0330 episcopal church usa
127_0331 v v v ha a
127_0332 ke ya ho batlisisa ka
127_0333 di close corporation di partnership
127_0335 ho itwanela ka ha a
127_0336 kojwana di mahetleng le ba
127_0337 ho baeletsi ba botegniki ho
127_0338 e fifetse ke mobunyana le
127_0339 ba mo memetse meketengle dikonsareteng
127_0340 a fihlang bokgutlong ngongoreho ya
127_0341 di ja le ho di
127_0344 motsemoholo ka dikhanselara le ho
127_0345 ha ke ya ke shebile
127_0346 pope pius
127_0347 leqwetha a sa re o
127_0348 o na le khopi ya
127_0349 le parole batlatsi ba badulasetulo
127_0351 rateng le ha ke re
127_0352 kgolohadi le e bolokilweng ya
127_0354 e babatsehang e nepahetseng le
127_0355 national historic landmark
127_0356 e ye e re ha
127_0358 basebelletswa batshehetsi jjwalojwalo mekgatlong eo
127_0359 kepa a rola katiba a
127_0361 akhaonto eo o ka bolokang
127_0362 ka ba toma le ho
127_0364 ya terre firme ka ho
127_0365 venice film festival
127_0366 memorantamo o ba tsebisangka diphetohotse
127_0367 ha ke mmotsa a re
127_0368 a nwe ho faswa e
127_0369 o ntshwarele ha e le
127_0370 karabelo ke ha afihla ho
127_0372 bonngwe ka bonngwe haele mafiritshwana
127_0373 o be o di ngole
127_0374 ya kgoholeho ya monu ii
127_0375 o mobe o sa rateheng
127_0376 ho ka hlahlojwang le ho
127_0379 ke a ikemisetsa ho pheha
127_0380 wa porovense wa kgauteng ka
127_0381 ke carlos alberto parreira le
127_0382 ha e le bo le
127_0383 e le engwe ho na
127_0386 le ho ruruha ha manonyeletso
127_0388 ohio state university
127_0389 e rabella ka sabole ho
127_0390 bo menomasweu ba o bolayang
127_0391 mananyetsa o ne a ikgakantse
127_0392 ka kotloloho le ho kgutliswa
127_0394 lekile ka makgetlokgetlo ho o
127_0395 riemann zeta function
127_0396 matlong a rdp ho a
127_0397 wa ho fepa le ho
127_0399 o mula nthwane ya se
127_0401 sa baikopedi ba sa atlehang
127_0402 dikharikhulamo di na le ho
127_0403 ba ho hlabolla botsebi ba
127_0404 ba a kwetse nqi ba
127_0406 ka ba le tshusumetso e
127_0407 o loileng o itoile ka
127_0408 southeast asian nations
127_0411 eo o e rekang ka
127_0412 se mo tlatlapile se tseka
127_0413 mo kgothatsang le ho mo
127_0414 re ke re e tshohle
127_0416 ha o letsetsa healthline o
127_0418 pepesehile le ho ba tlokotsing
127_0419 actor golden globe
127_0420 largest trading partner
127_0421 ke potele e kgwathwang ka
127_0423 fura la ngwna ke ho
127_0424 average family size
127_0425 hlahlobisisa bokantle ba makasine o
127_0427 e ba ya borathuto ba
127_0428 tereneng eo ke e palamang
127_0430 e ke ke ya ipitsa
127_0431 ha di kenyeletse setroi ditlhoka
127_0432 sebolelo o mo kena hanong
127_0433 le ba bararo ba ka
127_0434 fraenkel set theory
127_0435 pokothong ya ka a ba
127_0436 le sele le bohweng ba
127_0437 itshwenye le ho itshwenya ka
127_0439 phethahaditswe o bolokolohing ba ho
127_0441 ha e ke ke ya
127_0442 football league
127_0443 kgwehlang e ne e le
127_0444 mo tadima ka pelotlhomohi ka
127_0445 fetolelwe ke mofetoledi ya nkileng
127_0446 ha ho se ho tsepamisitswe
127_0447 ho itsibola ho ba le
127_0448 ke ne ke re o
127_0449 statistik provisionally valued
127_0450 e hatsetswang e etsuwang leqhwa
127_0451 a re leotwana lee ke
127_0452 ke ke a arolelanwa le
127_0453 e sa le ka madungwadungwa
127_0454 ha a ne a fihla
127_0455 mosiuwa ha a ka a
127_0456 ka ha e lebisitswe diketsong
127_0457 ba jakile ho mokgatjhane ba
127_0458 edgar allan poe
127_0459 mo lebelletseng ha o mmatle
127_0460 tlaase le ha mofani a
127_0461 be a se a betsehile
127_0462 a supasupa e ka o
127_0463 eo o mo sentseng o
127_0464 tshetso ya se tegeniki ho
127_0465 milky way galaxy
127_0467 sefateng e se e mo
127_0470 le di etetseng ha le
127_0471 v ho rafoha le ho
127_0472 e ne e thehwe ho
127_0473 oo o o nwang o
127_0475 binary search trees
127_0477 kgokahano ya dikahare le mehopolo
127_0478 tela maseru ke ho tela
127_0479 mehau ke re o ntsubise
127_0480 ka sefubeng ruri e ne
127_0481 ka ha di fuperwe ke
127_0482 a se a a kgotshe
127_0484 be a se a kgeloha
127_0486 kwetswe le mafelong a beke
127_0487 ho otloloha lenanetataisong la ho
127_0488 e be se atametseng ho
127_0489 ya tlhodisano le ya boinotshi
127_0491 mokudi ya kulelang lefu ka
127_0492 democratic national convention
127_0493 eo a sa hloleng a
127_0494 a ka hodimodimo ao ke
127_0495 ho o isa ho makgistrata
127_0496 holofetse ba qhwadile hampempe e
127_0497 ba ba ho se boloke
127_0498 ya ho fana ka ditshebeletso
127_0499 enaha se sebapallwa ke moraparapa
127_0500 tau setswetse ke o jwetse
127_0501 ka ba ke o rohaka
127_0502 ya o tebetseng a re
127_0503 ahlotswe a fumanwe a le
127_0504 re potlololo ha a bolellwa
127_0505 se ke wa kgutlisa bukana
127_0508 o ne a sa reriswa
127_0509 fact date april
127_0511 le dibopeho tsa dipolelo ka
127_0512 la ho bolaya mosebetsimmoho le
127_0514 early twentieth century
127_0516 ho tseba haholwanyane e ya
127_0517 le ba hlwaileng ho ya
127_0518 mohwehadi a bobotheha ke ho
127_0519 kgorong eo ho kenwang ho
127_0521 general public license
127_0522 a hlahela meduduetsane bokgeleke ba
127_0524 major league soccer
127_0527 le maqwetha ba ne ba
127_0528 ha ba welajwalo a se
127_0529 a ketsamelao a diprofense le
127_0530 ka foreisetata le lesotho e
127_0531 ba be ba e kgutlise
127_0532 e ne e le diya
127_0534 re tlole ka sekotjaneng se
127_0535 le bo ka kgonwang ho
127_0536 a tantetswe ka mabota a
127_0537 ewp e be ba sebedisana
127_0538 spanish civil war
128_0001 e buela sekgukgung dikgotjheletsaneng ha
128_0002 a lefuweng letloleng la mohlokomedi
128_0003 o a ntlhola ngwanaka ha
128_0004 ho robala ke ho fetoha
128_0006 e bmosiuwa ke mohlahlami boreneng
128_0009 ha e ke e binwa
128_0011 e na le boithati bo
128_0014 o sa tshwanelang ho e
128_0015 independent media diversity trust ha
128_0017 ntjha le diphetolo ngodisong e
128_0019 ho ya dikopanong le disimphosiamong
128_0021 science fiction fandom
128_0027 ha ke re o a
128_0029 ikamahanya le ba reretsweng ditaba
128_0031 di lekole kgafetsa re lokise
128_0032 le ho ba nolofaletsa ho
128_0033 ne a hloriswa kehlooho e
128_0038 sa ho ba le ditlhahiso
128_0039 hapelefatshe le ke ke la
128_0040 le polao eo e sehloho
128_0041 ho nnetefatsa lekunutu la molli
128_0042 ba dikapeso ho ba diporofeshenale
128_0043 ha e betsetswa ka fensetere
128_0044 ho etela tulo eo ho
128_0045 be e bonolo e napahetseng
128_0046 ke ya sa ba hlalosetseng
128_0048 ha o se o fihletse
128_0051 baokajeno e sengele dikgutsanakgudu ke
128_0052 ho akaretsa le ho kgema
128_0053 gold medal recipients
128_0054 numeric character references
128_0055 re roba dipelo he moradia
128_0060 tlelapo ya lantjhe b o
128_0061 tjheseho ya ho ka di
128_0062 a ka kgaotsa ho tsuba
128_0063 dipatlisisong a ka bitsa dipaki
128_0064 warring states period
128_0070 ha re e lemeng re
128_0071 ke ne ke sa kgolwe
128_0072 a phakisa ho o nyahlatsa
128_0075 ha ho bonahale e le
128_0076 lebitla ee ho ne ho
128_0078 national football league
128_0079 le ya ho ya ho
128_0084 eo e feletswe ke ho
128_0087 ha ho a loka ha
128_0089 ralehlatsa o ne a tahilwe
128_0090 le ha e le mariha
128_0092 american film institute
128_0093 charles sanders peirce
128_0097 president lyndon b
128_0100 fixed point theorem
128_0102 ao aneng a ka ba
128_0105 los angeles times
128_0106 monene ha le ne le
128_0109 international criminal tribunal
128_0110 qobe le ho nena dinyehelo
128_0116 hwa jewa dikuku le nama
128_0121 hello world program
128_0125 la nkgwebetha la re ke
128_0126 tu ebile ha ho sa
128_0128 helang ha e sa le
128_0129 ne e le ya ho
128_0131 kgoho e tshwerwe ke mokoeyo
128_0133 makubetso le ho ja ho
128_0136 o ne a hlahafetse ha
128_0139 adriaan a mema borakgwebo ba
128_0141 o ne a hlodiya ramaqiti
128_0144 digital equipment corporation
128_0145 sa utlweng ditsebeng le ba
128_0148 le e governance e learning
128_0149 bo sa amoheleheng le ho
128_0150 ya kotulo eo ba e
128_0151 a se a futhumetse a
128_0153 o hlekefetswa ka ho shatjwa
128_0156 be le se le mo
128_0158 ba ka susumetswa ho ya
128_0159 high school alumni
128_0161 e ke ke ya inkelwaka
128_0163 wa casalis e ne e
128_0164 science fiction hall
128_0165 dikotsing hotshwanetse baikenye molatong le
128_0166 national football team
128_0168 le ha e le lefe
128_0169 thelevesheneng le seyalemoyeng mananeoa behelwa
128_0170 ho re ha e le
128_0171 ngwananyana waseithati ya tshepileng ho
128_0172 e totobe tseng sebopehong sa
128_0173 ka ho o tjodietsa ka
128_0175 ba monyetleng wa ho hahlamelwa
128_0176 jwala o mmitsa kgowanatshwana lejakane
128_0177 mahloko a kgaello ya ayodine
128_0178 o ka sesa ha o
128_0180 battery park city
128_0181 hamorao ho ye ho etsahale
128_0182 ke hle ke o jwetse
128_0184 ke enwa o se a
128_0186 russian orthodox church
128_0187 o ne o theosa eo
128_0189 ke ne ke o kala
128_0190 gravitational potential energy
128_0191 ne a na le bahlankana
128_0192 le ho se latelwe ha
128_0193 ka online lefatsheng lohle ka
128_0194 ya buka eo o ithutileng
128_0198 late twentieth centuryodowska curie
128_0199 geologic time scale
128_0200 ha a ka ke a
128_0202 tb e tsohileng ba ka
128_0203 operation enduring freedom
128_0205 tlalang le ha ho le
128_0208 states district court
128_0211 tswekere ya illovo e tshweu
128_0213 le ha ho se ho
128_0214 ke se sengangele a ka
128_0217 united states supreme
128_0220 moetsi ketso moetsuwa katoloso jj
128_0222 ka ho ngollwa ka ha
128_0223 na le matla a ho
128_0224 ke tjhefo e kwaeng e
128_0225 ha o re re bitsetse
128_0226 a thupelo diphetolelong le tlhaolong
128_0228 ya bokenadipakeng ya tonakgolo e
128_0229 bakae ba amehang tsamaisong ya
128_0230 president franklin
128_0231 o sa qoqweng ke dipapiso
128_0234 re tsho ho ne ho
128_0235 ha di sa le setlwaeding
128_0240 le sa le letjha ho
128_0241 ne a futsitse lebitsola haehobanee
128_0243 ka ha ho bontshitswe tekodisiksong
128_0245 greenhouse gas emissions
128_0246 yom kippur war
128_0247 ne o kopile koranta ho
128_0248 states coast guard
128_0249 polakwang dihekeng le mamating a
128_0250 clarify date january
128_0251 ho thweng ke hotsitsi eo
128_0252 ke ikutlwa ke imolohile moyeng
128_0253 kgotsa mmamoleko ha se dingwetsi
128_0254 a feheletsana ba a ithoka
128_0255 di hlwekile di sa tshwehle
128_0258 ie seoa se unang ho
128_0261 dihlekehleke madiboho marokgo le metjhophoro
128_0263 ne a bolelle mmae ka
128_0264 letlaila le ho tlaila moreneng
128_0266 a ne a hanela monyaduwa
128_0269 maiteko a ntjhafaditsweng a dinaha
128_0270 ke ne ke safufulelwa ho
128_0271 mabothobotho a bonojana bo tsotwang
128_0273 ekasita le ho nyediswa ke
128_0274 billion years ago
128_0276 ya ka ka kglofalo e
128_0277 se kgabole ha a boya
128_0281 adelaide tambo o ne a
128_0282 eo re mo tswetseng o
128_0283 se e le wa semanyamanyane
128_0284 supa ku tlwisiso e kgabane
128_0288 thusong e arabelang le e
128_0290 o ne a le bohareng
128_0291 air traffic control
128_0292 ho hlahlobisa le ho ntjhafatsa
128_0293 apesa ho kupetswe bofeela ba
128_0296 ke sehwai sehwai se kgothetsa
128_0298 ya ho potlakisa kgokahanyo ya
128_0300 procedural programming languages
128_0301 ba ruisitse maqheka a bohlalefi
128_0304 ne bangongoreha meyeng ha ba
128_0305 ho na le di hansard
128_0306 ho na le phokotseho e
128_0307 ba re lesokwana la ya
128_0309 o ikenya tshotso dinaleng o
128_0311 momahanyo le ho boikamahanyo ba
128_0312 e a nenwa naheng ya
128_0314 ha ke re o utlwile
128_0315 hlokahalang le matsapa a ho
128_0317 ka motjhanae ontse a hotse
128_0318 ya penshene le ya ho
128_0319 lefshwang ka tlaase le baithaopi
128_0320 football clubs established
128_0322 natural gas reserves
128_0324 o ka wa e noha
128_0325 appointed prime minister
128_0327 ka ho ngolla moromowa ho
128_0328 a itlhompholle ka ho phetela
128_0330 o na le kgohedi e
128_0331 le moputswa pududu a sa
128_0334 ha di hlophiseditswe ho ka
128_0335 mo kwalamolomo ka seatla sa
128_0336 bo ne bo hwebisana le
128_0337 o mphara ka melato eo
128_0340 melaetsa ya ditshoso ya ditshokelo
128_0343 re ka e fihlelang ke
128_0344 thothokiso le ya sengolwa sa
128_0345 ho tsamaisana ka ho lekanale
128_0347 e le ha ho jewa
128_0348 sports clubs established
128_0349 lokiswa ha masalla a setopo
128_0350 ho be le phumantsho e
128_0351 boahisani le european union maelana
128_0352 ba mashaba ba ne ba
128_0353 ya ho ba mahlabeng ha
128_0354 se ba kopanyang ba kopangwa
128_0357 ke kene morerong oo wa
128_0358 letlole la ho ya pensheneng
128_0359 world heritage site
128_0360 kgothaletswe ho iqalla le ho
128_0362 e moholwanyane ha a kopuwa
128_0363 be ho petsohe le mafika
128_0365 ya bosebolelo ya ho qhelela
128_0367 ka phaposing ya ho phomola
128_0368 citation needed april
128_0370 tafoleng eo ho tsebiswang ho
128_0373 ka mabaka a utlwahalang ho
128_0374 human rights violations
128_0375 ho re ha e a
128_0378 le baphedisuwa ba ka e
128_0379 fuwang mosebedisi ho kgema le
128_0382 e se e hlahelletse poyaneng
128_0385 containing video clips
128_0386 a post graduate di institjhusheneng
128_0387 methodist episcopal church
128_0388 re se re kgenne e
128_0389 o re ha o ka
128_0390 wa ba wa leka wa
128_0391 manufacturer for agoa particulars di
128_0392 ne o le bolepolepo o
128_0393 institushene e tshepuweng ka ho
128_0394 ke ke ha eba bonolo
128_0395 tu ha ho sa na
128_0396 ha o re o a
128_0397 a o fetohela oiphumane o
128_0398 a rarahana di a lohellana
128_0399 kuruetswa ke ho re a
128_0400 ba hlwauweng ka ho ya
128_0401 eyes wide shut
128_0402 high seas fleet
128_0403 le bitleng la mmaletrato le
128_0404 kekgalefo ya re ha mmatshokolo
128_0405 bontshe tosa le madinyane a
128_0406 ha katiba e le e
128_0407 ke utlwile bothabiso ba re
128_0408 homo phopholetsaka ka mokgwanyana o
128_0409 le ho se ba fe
128_0410 ho phethela boikwetliso ba thapameng
128_0411 free software programmed
128_0412 re majalefa a sekema se
128_0413 la ho se utlwane ka
128_0414 ho ka be ho sa
128_0417 round table le rotary le
128_0418 ha e a etswa ho
128_0419 ba bolotsana ke re ha
128_0420 ka ho qolleha ba kopanye
128_0421 ho ba ramotse tikolohong ya
128_0428 wa mooki tliliniking e ka
128_0431 ya qositsweng ya lokollotsweng ka
128_0436 a se a hlokahetse monyaduwa
128_0437 trust ya ntsahetsopele le ka
128_0438 e se e le motsheare
128_0439 etlare ha ke tea kalala
128_0441 mekga e thusang ka ditjhelete
128_0446 ho ja ha o na
128_0450 tshenyeho ya mesifa mascular dystrophy
128_0451 kgelohang tokelong ya bohato bofe
128_0453 ho yahae e ke ye
128_0454 summer olympic games
128_0456 ho ile ha ba le
128_0457 ka makgetlo a tsheletseng ka
128_0458 ya makwalata e ka fodiswa
128_0459 ka nepo ho fetisa ka
128_0460 african development bank
128_0461 official diplomatic relations
128_0463 hugo award winning
128_0466 e be ke mokgethi wotong
128_0467 boqhetseke le ka bohlwahlwa ha
128_0468 thehileng matleng le mananeong a
128_0469 a ikemisetse ho reupella le
128_0471 le ha hone ho le
128_0473 pitsa e phehang gauta ka
128_0475 lebisitse hokae ha o ipoledisa
128_0476 ba intshang sehlabelo ka ho
128_0478 tshwenyehile o se ke wa
128_0479 la dikgokahano ba in communications
128_0480 ditshila ya ho bapala ka
128_0481 following demographic statistics
128_0482 le tshwantshe le la ka
128_0483 johann sebastian bach
128_0484 se nw e seno se
128_0485 amateur radio operators
128_0486 e kgwaetse ka lehafing a
128_0488 sa mo re shwato nkong
128_0489 human rights abuses
128_0490 nafvsa e na le phaposi
128_0492 ya polokelo le ka kenngwang
128_0494 sa qeaqee le ho qeaqea
128_0495 international auxiliary language
128_0496 ba ba le kgaoho ya
128_0497 ke sa o putsa ka
128_0498 congressional gold medal
128_0499 atomic energy commission
128_0500 se batlwang ke takadimane ba
128_0502 ba le phehiso e tlotlehang
128_0503 ne ba ye ba re
128_0504 ba pokeletso ya basebedisi ba
128_0505 aung san suu
128_0506 wat sal my nou te
128_0507 ke ke ya ba ka
128_0508 buisanang le ho ngangisana ka
128_0509 disebo o ipolaile a ba
128_0510 ka re makau ke sebapadi
128_0511 mo hlokomedisa ka bobe le
128_0512 irish republican army
128_0513 phe thetsweng se baleha ha
128_0514 ne o ntjodietsa ha o
128_0515 le le ka sekotlong sa
128_0516 re e ka mo loma
128_0517 mohlomi o ne a etelwe
128_0518 sa nkge leseporo le kgutletse
128_0519 hlotjhwa ha ba di shebelletse
128_0520 e nngweba ne ba bonesaka
128_0521 se a kgahlilwe ke ka
128_0522 ho se ho ho le
128_0524 mokgahlelong o ka tlasenyana koporo
128_0526 roman catholic bishops
128_0527 ka sekotlolo a sa sebetse
128_0529 e lelefalang le ho kgutsufala
128_0532 tebetebeng eo o nkentseng ho
128_0533 a welang makaleng a tshwanang
128_0535 ka bokamoso ba ka ha
128_0536 di sa le setlwaeding yaletsetsa
128_0537 serapa le ho hlwekisajarete le
128_0538 afidavite e tswang ho setho
128_0539 matshwafo a se a uba
128_0540 e lwanenela lepatlelo la dithekiso
128_0541 ha re lekola dikopo le
128_0542 ho re ho se ho
128_0543 e re pududu a sa
128_0544 a sa ka a kgaola
128_0545 a pula a phallella ka
128_0546 le ho ipapisa le thomo
128_0547 le ho tshehetsana le ho
128_0548 le ja podi ho fetafeta
128_0549 le ho se sebedisane le
128_0550 tsamaiso ya sekema le ditlhophiso
128_0551 tjhotjholosa ba ne ba le
128_0552 e se e ie dibeke
128_0553 le apesa ho kupetswe bofeela
128_0555 samuel taylor coleridge
128_0556 didibeng babalang ba re le
128_0557 bavouti ba ingodisitseng ba tlohileng
128_0558 ntjapedi ha e hlolwe ke
128_0560 national historic site
128_0561 malapaa utlwilengbohloko kabaka la horeemongwa
128_0562 ya ka tlelaseng setsing sa
128_0563 a ka ngodiswa e le
128_0564 le ha e se a
128_0566 le ho hlahisa dipalopalo dikhopi
128_0567 e ka ba le makukuno
128_0568 e raduweng e se e
128_0569 mo tshabang ho nkgisetsana mahafi
128_0570 o ka tlasenyana koporo ho
128_0572 mme o sehe mola qetellong
128_0573 john maynard keynes
128_0574 tjhetjha a ba a tjhetjha
128_0576 ho bolokwa le ho hlokomelwa
128_0578 re lebatswadi ba banabana le
128_0580 sa dikulo difensetereng le monyako
128_0581 o re qobella ho hasanya
128_0584 national security council
128_0585 ya vat vendor search ke
128_0587 dikgwerekgwere le monyediso ya mantle
128_0588 o ne a hlabile dioka
128_0591 le ho seholla mmateboho habohloko
128_0592 ke se ke ekwa ke
128_0593 ne a se a utlwetse
128_0596 ha a sa e fuwe
128_0598 cite journal title
128_0599 ha eo a se a
128_0600 re re re qhwaolla kobo
128_0601 southern african development
128_0602 ya b le ya c
128_0603 lerumo ho kgabola kanono moela
128_0604 obitjhuari ka ha le ne
128_0608 ho tiisetswa e le ya
128_0609 mafellong a mesifa di ba
128_0610 a mo jakisa jareteng ya
128_0612 ba angwang le ho tshwaetswa
128_0616 ho re ho se be
128_0617 ho ba ka hodimodimo lenaneng
128_0619 a butswelana ka tholwana le
128_0620 ke sa na boikgethelo ha
128_0622 e re ke o bolellennete
128_0626 million years ago
128_0627 le manollong ho ikamahantswe le
128_0628 tlhwekiso ya matlwana ke le
128_0630 re re ye wits ka
128_0631 ho registrar of animal improvement
128_0632 ka ke sa tsilatsile le
128_0633 ho ne ho se ho
128_0634 ba sireleditswe tlhekefetsong le tlontlollong
128_0636 di fumanehe khomputeng ikopanye le
128_0637 ba a phehelwa dinama le
128_0639 be o iphasa ka lerapo
128_0640 le ho phomosetsa bamemuwa ba
128_0641 makuleke kruger national park dinaheng
128_0642 a setso le a sepolotiki
128_0645 na le ho kgaokg aoha
128_0646 kgolong ya ka le tshiung
128_0649 uke ichi ni san ji
128_0652 qetel long ya boimana ba
128_0654 ba mo epela ba mo
128_0655 mokuru o se o sibile
128_0656 ba kgethetsweng ho ba diroki
128_0658 original game boy
128_0660 a tsweretse sa tweba e
129_0001 ya sengo le e ka
129_0002 ha bathobabaholo ba ka ba
129_0003 chinese martial arts
129_0004 ya moqoqo ho karolo ya
129_0005 di malebana le ho se
129_0006 ha ba se ba qetile
129_0007 ha a ka a ahlolelwa
129_0008 le ha ke ne ke
129_0009 ha ke no ebola tapole
129_0010 re ke ke ra amohla
129_0011 ha le a ka la
129_0012 le ho ba ngatana e
129_0013 ke ho kgothaletsa le ho
129_0014 ho ntshetsa pele le ho
129_0016 ne se sa mo kgese
129_0017 ke tlallane ke ne ke
129_0018 itahla a so ye le
129_0019 ba ye ba re ha
129_0020 ecstasy lsd le ka boheroin
129_0021 re ya ka nnqeng e
129_0022 ka metswako e fapafapaneng ya
129_0023 ko re phetele he ka
129_0025 letlole la inshorense ya ho
129_0026 television series debuts
129_0027 bafta winners people
129_0028 ya ho fa medimo dimpho
129_0029 ke na le kgwaonyana ka
129_0030 e kangmotho o ka tlolela
129_0031 re tlotlolotse re ne re
129_0032 be a se a di
129_0033 a mokokotlo neural tube defects
129_0034 maikemisetso maemo le sebopeho ka
129_0035 diphepetso le ha ho le
129_0036 a ye boyabatho eka makatikati
129_0037 ya ho ya llifing e
129_0038 ke o honothele ka ha
129_0039 toronto blue jays
129_0040 se builweng ke sebui se
129_0041 force khashane o butse mokete
129_0042 tsamaiswe le ho fetoha le
129_0043 o motsho le o mosweu
129_0044 e jehang e le ka
129_0045 a re o ne a
129_0046 ho ba dihlabi maphelong a
129_0047 policy on financial awards pfa
129_0048 o dihetse tekete he mohaeso
129_0050 ha e le letahwa o
129_0051 bahlahisi mabenkele a rekisang le
129_0052 ne a sa le monnyane
129_0053 ba ipha dimenyane mthethwa a
129_0054 civil liberties union
129_0055 mmala o motsho le o
129_0056 ha a ne a di
129_0057 ya netweke ya prime cure
129_0058 k h r pilisi sirapa
129_0060 o pepesang dintle le dimpe
129_0061 se bo le ho o
129_0062 r ho se be le
129_0063 ha e shwe ha e
129_0064 tsebisahala ka ho re ke
129_0065 great northern war
129_0066 wa kobolelwa ho iketla ho
129_0067 average household size
129_0068 o se ke wa tshwenyeha
129_0069 enakaofela ha a hlahela lerallaneng
129_0070 ho bahloki ba dimilione ba
129_0071 o a sebedisitseng pheletsong ya
129_0072 ho palama kariki ya ritjha
129_0073 ba se ba lwantshwa ke
129_0074 big bang theory
129_0075 le moorosi ba ne ba
129_0076 se a ne a ye
129_0077 ne ho le mahleke ka
129_0078 ba baholwanyane ba bananyana e
129_0079 bo tadinngweng ka ho ka
129_0081 eastern orthodox christians
129_0082 hoja e ne e se
129_0083 re o se ne a
129_0084 tjhebahalo paterone mokgabiso le kaheho
129_0085 ahuwe ka makote se le
129_0086 le ho ja phepo e
129_0087 wa ditlaleho o na le
129_0088 reverse polish notation
129_0089 ya ditho ya inthanete member
129_0090 e phehelle ho ba le
129_0091 se a mo kopetswe o
129_0092 ka afidavitepehelo eo o ikanetseng
129_0093 ba e na le dinqalo
129_0094 badi phetang ba a di
129_0095 cipro ha o se o
129_0096 riphaboliki le ha ho le
129_0097 atjhetjha ha se be le
129_0098 ya ka ho re na
129_0100 wa ka abolela ha ho
129_0101 ha a tloswe ha a
129_0103 wa ka o ya o
129_0104 le seta ha ba sa
129_0105 real gdp growth
129_0106 ha moqosuwa a hloleha ho
129_0107 mmokelletsi ya lefshwang khomoshene ya
129_0108 ke se ke itshwetse mokgubu
129_0109 ne o ikopa ho ya
129_0110 o etselletsa ha ke re
129_0111 ji go roc sichi haj
129_0112 a ileng a ba a
129_0113 ha e a dumellwa ho
129_0114 wa ka ke motshehetsi e
129_0115 o tswetswe a le lekgutla
129_0116 bo tsanyaola modidietsane bare mmopi
129_0117 le utswitsweng jj le b
129_0118 se mo sunya sephephetjhana se
129_0119 ba bangodi babohi le ho
129_0120 qalehong ya kereite e ka
129_0121 mo hlanohetse ho mo hlanohela
129_0122 mesana ba ka o ja
129_0123 o ne a sa hlekefetse
129_0124 nyarela ka fesetere oo ke
129_0125 tshepahala ha botsamaisi bomolao boikarallo
129_0126 di sa fetohe bophelong ba
129_0127 ho re ho ya sepoleseng
129_0129 ke ke ba arolelanametsi a
129_0130 wa silivera o pshatlehile ke
129_0131 le ha ba sa e
129_0132 le ha ke re ke
129_0133 history important documentation
129_0134 di timanwe e se bohobe
129_0135 ke ke ra ikotla difuba
129_0136 sa d i ha se
129_0137 ha ba tshwaraneng le ho
129_0138 ke be e e be
129_0140 a sa thekeseleng a ho
129_0141 eo ba ka nehelanang ka
129_0142 ho ke ke ha o
129_0143 sa kgahliseng e be re
129_0144 ke a buellwa ke leqwetha
129_0145 ke mala ke nama ya
129_0146 oo o re phetelang ka
129_0147 ba kgethile disakarete le dithutswana
129_0148 o se o iphetotse moleleri
129_0149 mo eletsa ka ho re
129_0150 ka e ne e le
129_0151 principal ideal domain
129_0152 hlophisitswe ka ho ya ka
129_0153 b a se ke a
129_0154 air force bases
129_0155 ho petsoha le ho epeha
129_0156 e be o a iphetela
129_0158 bontshwa ka ho kengwa ka
129_0159 ba ke ba hahlwe ke
129_0161 office administration ka ngollano ha
129_0162 entela feberu e tshehla ha
129_0163 diseili faeba tlelase patsi le
129_0164 ya sephiring ya ka le
129_0165 bo boletsweng leqepheng la ditaelo
129_0166 ho hodisa le ho totobatsa
129_0167 malapa a tjamelane le diphepetso
129_0168 major political parties
129_0169 ha e ya ka ya
129_0170 ka ho ya ka tshitshinyo
129_0171 e le nonyana ya ntlwanatshwana
129_0172 e lokelwa ho saenwa ke
129_0173 phomolo le ka tjhentjhana le
129_0174 ha ho so etsuwe o
129_0175 sa ho ngodisa khansele ya
129_0177 be e le tharollo ya
129_0178 ho tla fanwa ka tsona
129_0180 khanselara ya woto e ka
129_0181 e nyolotswe ka diphesente tseleshome
129_0182 ka bofokodi e ba le
129_0183 e ne e le mohobelo
129_0184 international red cross
129_0185 ka thota ha ba tlolela
129_0186 o ne a mmalla ka
129_0188 se nehuweng ho sa tsotellwe
129_0189 ke raditjhelete ya hafang ka
129_0190 a tlwaelehileng a dipuisano ka
129_0191 a mo tlweba ho ya
129_0192 exclusive economic zone
129_0193 eo a e ya ka
129_0194 ka kuno e lekanyeditsweng e
129_0195 v ka ho re le
129_0196 dipotsopotso o ne a se
129_0197 e sa potoloheng e utlwisisehang
129_0198 di di tsamaise di di
129_0199 le ho e bapadisa ka
129_0200 ha e sa laele e
129_0201 jeseng ditheohelang e le ka
129_0202 ya setereka sa maseterata wa
129_0203 ho se ho se monate
129_0204 south american countries
129_0205 hwa be ho se ho
129_0206 tankana se lokisitsweng ka ho
129_0207 o sa tshwasetseng ho ja
129_0208 e thusang ka ditjhelete e
129_0210 le ha ba ka mmitsa
129_0212 peisong le ha ho le
129_0214 ho bentsha tapeiti o a
129_0215 ho hlaloswang le ho buisanwa
129_0216 ya ho bulela bongatane le
129_0218 elections took place
129_0219 o itheola seriti ha o
129_0220 a le abilweng ke palamente
129_0221 ke be ke o tlatsela
129_0222 ba ho ngodisa bokudi ba
129_0223 a nya matsete a ba
129_0225 batsamaisi ba mananeo le dibohodi
129_0227 a pota ha ke na
129_0228 ho ba motswadi e motjha
129_0231 a o hlapanyetsa moreso ho
129_0232 ke ho qhwala ho mo
129_0234 o ithutile ho le ho
129_0235 be a se a neheletsa
129_0237 oo e seng wa phahello
129_0238 ba ne ba tlwahetse ho
129_0240 mohlomong e be e le
129_0242 na ha ke re ho
129_0243 ha re ka ra e
129_0244 morabaraba thellisane phupekalefe di ne
129_0246 ho eo o itlwanang le
129_0247 eo re e tsamaileng jwaleka
129_0249 e se e qhalane e
129_0250 track speed skating
129_0251 eastern bloc countries
129_0252 animated television series
129_0253 ke boriki eo ka bokgutswanyane
129_0255 fact date january
129_0256 ba sa ikamahanyeng le bcea
129_0258 setsheho sa ka e le
129_0259 o thatafallwa ke ho sebedisa
129_0261 o se ke wa nkuka
129_0262 e kanakana ya tabahadi e
129_0263 e ba o pepeta senotlolo
129_0266 ya meputso eo ho ka
129_0270 itahle a so ka a
129_0271 ba ke re re qhalle
129_0272 a sa sela meqomong a
129_0274 ka nepo o se o
129_0275 nyontse a tenehile a sa
129_0280 o ne adumellana le bahlalefi
129_0281 ne di hlwekile di sa
129_0283 bohlahlobi ba semolao ba ditjhankane
129_0285 mrm e ne e le
129_0286 ozone layer protection
129_0287 fact date march
129_0288 ha o mpona ke le
129_0289 e bapatsang le e fepelang
129_0291 ya holang ha a le
129_0293 central processing unit
129_0294 ee na o ka re
129_0295 ka ho ya ka mehato
129_0296 ngola le ho nehelana ka
129_0297 phedisano a shebane le ho
129_0298 tennweng ke kedibone e mesesane
129_0299 ne e le ya v
129_0300 ya ho bora e sa
129_0301 e metle eo a e
129_0302 ho ba boemong ba ho
129_0303 ka kgahlwa ke none e
129_0304 ha a sa a qapodisa
129_0305 le tumediso ya ka ka
129_0307 e ne e mo rute
129_0308 bophirima boloi ba mampolane bo
129_0310 ba sa itekanelang ba tsofetseng
129_0311 wa ka ka bokgoba ba
129_0312 mantsopa ha a sa mo
129_0313 ba e tobileng mehatong ya
129_0314 re sa lwana ha e
129_0315 high school students
129_0316 re ke ke ra ikwala
129_0317 united states environmental
129_0318 military coup
129_0319 mo tsokotsa ya ba ya
129_0320 be di se di sutelwa
129_0321 afe ao ho ikemiseditsweng ho
129_0322 e le afeng moikopedi a
129_0323 e se e le dithungthung
129_0324 se o le lekgoba la
129_0325 dihela dikgala molatong ono wa
129_0326 kgohlong ka ha a ne
129_0327 boshodu bo ne bo le
129_0328 tshwantshiso ee na o ka
129_0329 hamohau a mo shebisisa a
129_0330 di a behwa ka tate
129_0331 la ho ya beleha le
129_0332 he ka ho ya ka
129_0333 political parties established
129_0334 o be o sulafallwa ke
129_0336 baruti ba ne ba le
129_0337 tobana le ho kenyatshebetsong o
129_0338 kelly o ne o na
129_0339 lehano e sa kgoneheng ha
129_0340 re a phahame a ke
129_0341 a re o a mo
129_0342 ya motabo o sa itshireletsa
129_0343 tlhahisoleseding yohle eo o re
129_0344 org wiki wikipedia
129_0345 kentswe bonyane mohlala o le
129_0346 toropong e ne e le
129_0347 ha di ke di be
129_0348 kokosile selepe a loloma ke
129_0349 tsalefatshe ke majoro eo ha
129_0350 eo e ne e jellwa
129_0351 ka baka la ho kula
129_0352 maintains diplomatic relations
129_0353 french revolutionary wars
129_0354 diwoto di ka ba le
129_0355 science fiction films
129_0356 lethoko o ne a sa
129_0357 be o le modudi wa
129_0358 ha ba ne ba le
129_0359 e sa etseng phaello di
129_0360 registrar of animal improvement e
129_0361 metal musical groups
129_0362 ha e le ho kgutlela
129_0364 a ka na a phahamiswa
129_0365 mosotho le ha a se
129_0366 a boikarabello v e kgothalletsa
129_0367 ke o antsha phooko ha
129_0368 na o lekotse alaenemente le
129_0369 e kaale ha o se
129_0370 e a thibelwa ka ho
129_0371 a ho na le sekgeo
129_0372 ya mabidi o ka se
129_0373 ne e ka ratwa ke
129_0374 e se bo kgodisang hakaalo
129_0376 a ke ke a mo
129_0378 melata le ho se be
129_0380 ke ya thabelang ho rongwa
129_0381 ya ho ipuella ho eo
129_0382 ha se re mmopi o
129_0383 a diranta ke ho re
129_0384 o ne a sa e
129_0385 ho hlomathisa dibili le ho
129_0386 ba ha re kokololo le
129_0387 ba ya ntshehisa ke le
129_0389 le le kaalo o ne
129_0391 ho ya ka tokodiso ya
129_0392 ya hleng a tiiseditaba le
129_0393 ngaka e laolang meriana ya
129_0394 a b c d le
129_0396 na o a e phehisa
129_0397 ha a se a hodile
129_0398 ya ho thonngwa le d
129_0399 ntlha le ha e le
129_0400 states supreme court
129_0402 di ka etsuwang di le
129_0403 ha e na thusoho na
129_0404 ya makatsang e le ka
129_0406 aaraba ee ke ne ke
129_0408 to information act ke ho
129_0409 ke ke be ya phaellwa
129_0411 ho itekola le ho itshupa
129_0415 e nyarosang a be a
129_0417 new prime minister
129_0418 mo thetsa ka ho re
129_0419 bo hodimohadi ba boprofeshenale nonoso
129_0420 eitse ha ke re ke
129_0421 free trade area
129_0422 hahlaula ha e le boqheku
129_0425 hlophisang dimmapa le mahlasedinyana a
129_0427 popular tourist destination
129_0428 humid subtropical climate
129_0429 le vitamini e ka ho
129_0431 eo ka ho kgena o
129_0432 le mahlonoko motseng wa naledi
129_0433 ne e le tjaka hara
129_0435 o qadile ka mathaithai a
129_0436 native american languages
129_0437 ho kwalwa ho sa hlokeheng
129_0438 ho kgoneha ho be le
129_0439 ho ne ho tsongwa ho
129_0440 leyena o ne a se
129_0441 ka re ho ya ka
129_0443 le sa utlwahaleng a sa
129_0445 e se e itshetjha e
129_0446 sa se medisa wa se
129_0447 wa bohokedi okgonang le o
129_0448 e le bohlokoha e le
129_0449 kabong ya ditekanyetso le ditaelong
129_0450 mr t a ba a
129_0451 ho lothanwa ba lothuwang ie
129_0452 ha e le ho totoba
129_0453 relatively small number
129_0455 ho be le ho se
129_0456 ba seafrika bo hlomptjhwe o
129_0458 boitsebiso ho thibela pepeso e
129_0459 karohano ya ho ya ka
129_0460 ha e bonahale ntlafalong ya
129_0461 wa bodulasetulo ba sadc ho
129_0462 united states presidential
129_0463 kgwebo e ka thoko ho
129_0464 le se ke la fokodisa
129_0465 ya boipiletso ba ka hare
129_0466 ke haho se ho ropoha
129_0467 late middle ages
129_0468 diphoso le ho e ntlafatsa
129_0469 mehala ya ka malapeng le
129_0470 jang setoto ka lere ka
129_0471 le molaodikakaretso wa ka ho
129_0473 ha le re tjhapa le
129_0475 sefate a mo atamela ba
129_0476 a hwehla ka letsoho ho
129_0477 ispia monnafeela a kwetelwe ke
129_0478 matsholo a ikgethang a temoso
129_0480 be o re tjodietsa ka
129_0481 e mebe eo e ka
129_0482 ho inkela diqeto ha ba
129_0483 ekasitana le marangrang a dikgokahano
129_0484 ba na le shere e
129_0485 josip broz tito
129_0486 a nkehile mathakeng ao ke
129_0487 wa dithota lerata molodi wa
129_0488 ha ho na le menyenyetsi
129_0489 ho mokomishenare wa ditlhapiso p
129_0490 o be mohlodi lengwele le
129_0491 mo jesa ba mo robatsa
129_0492 e hopotseng e sa wele
129_0493 ba ne ba sebaqaleletse ho
129_0494 ka phaphosing ba ne ba
129_0495 new york mets
129_0496 boitshepo bo kgotsofatsang ha a
129_0497 papua new guinea
129_0498 ho ka bakela ho feroha
129_0499 potlolomente matsohonga samadula anto epelamoomofatshe
129_0500 dar es salaam
129_0501 e ne e se moitlami
129_0502 malepeng e le bahlokomedi ba
129_0504 sa nwajwala tlhase ya pososelo
129_0505 ya boitjhoriso e ne e
129_0506 a se a sa hlomphe
129_0507 a ka nkuwang e le
129_0509 be se atametseng ho sa
129_0510 hannefeela ha eo a furalla
129_0511 e le sekgomathiso e se
129_0512 e le nasala nasala o
129_0513 sa re hlahele re bohlale
129_0514 e tshabe ho ba tlohedisa
129_0515 ne e le moqebelo ka
129_0516 ho sebedisetswa ho lekanyetsa diphetho
129_0517 ho ba le boitemohelo ditsong
129_0518 le diphetoho ho ya ka
129_0519 tjheka moriana thoteng ha a
129_0521 eo moradiae a sa lokelengho
129_0523 ao o a bokelletseng a
129_0524 bothile dinonyana di ipatile dirobeng
129_0525 achievement award winners
129_0526 ke lebohile ho menahane ka
129_0527 a lefshwa ho ya ka
129_0528 ya lebalang moetsuwa ha a
129_0529 a tsebiswe ka boikemisetso ba
129_0530 mekgeng e sa sireletsehang ba
129_0531 ne a se leqhoko a
129_0532 ka kakaretso le c ho
129_0533 american sign language
129_0534 ka ha ho boletswe le
129_0535 ha eo a e ya
129_0536 ba tshepahalang ba na le
129_0537 sa ye ngakeng o e
129_0538 phatlalatso ya ho lokollwa ditlamong
129_0539 ya ho se itekanele e
129_0540 a ba kadima masenke le
129_0541 o ke ke be wa
129_0542 ha ke re mmao o
129_0544 e sa le ka madungwadungwana
129_0545 o mo phehletse sefuba sa
129_0546 ya ho tsamaela ho lebeng
129_0548 a ne a kudiswa ka
129_0549 guano islands act
129_0550 a tsebise b a mehang
129_0552 ya sepikara e ka ba
129_0553 tlung eo le e kopanetsweng
129_0554 ba saps criminal record centre
129_0555 e a ko hlo ntjwetse
129_0556 le mamosa e ne e
129_0557 a se a e na
129_0558 united states district
129_0559 wa kelly o ne o
129_0560 biri a re o hlaphola
129_0561 roman catholic priests
129_0562 afidavite e arabang e kentsweng
129_0563 dikgoho botsikwane bo ba qete
129_0564 le re kgethollang le re
129_0565 ha di a behwa ka
129_0566 le ke bothabang o a
129_0567 ya bonna le bosadi ho
129_0568 queen elizabeth
129_0569 emelang le ho di fa
129_0570 le ho bola ha maitshwaro
129_0571 ya homeland ya qwaqwa le
129_0572 lekoteng ho tu o balabala
129_0573 le ba senyehetsweng ke tsonad
129_0574 ba re morwa o bohlile
129_0575 ha a na le kgahleho
129_0576 otukang malakabe a maholo a
129_0577 ke ho tlodiswa kgathi ka
129_0578 lekgotla la diphuputso la temo
129_0579 e boetse e na le
129_0580 se fofonela se a kopola
129_0581 ho re ha aphela o
129_0582 asian nations asean
129_0584 be e se e le
129_0586 ya dintla le tsepamo ya
130_0002 bo a mpelaetsa ke ka
130_0003 ha a ka a mo
130_0006 ne a sa dumellane le
130_0007 chinese communist party
130_0009 rometsweng ka fekse di ke
130_0010 le dikakiso o ne a
130_0011 o se abile a le
130_0012 diphofu ha ho sa fihlelwa
130_0013 episcopal church usa
130_0014 v v v ha a
130_0016 di close corporation di partnership
130_0017 ne ke re ho ya
130_0019 kojwana di mahetleng le ba
130_0020 ho baeletsi ba botegniki ho
130_0021 e fifetse ke mobunyana le
130_0023 a fihlang bokgutlong ngongoreho ya
130_0024 di ja le ho di
130_0025 eo ya lehokedi sehella lehokedi
130_0027 motsemoholo ka dikhanselara le ho
130_0028 ha ke ya ke shebile
130_0029 pope pius
130_0030 leqwetha a sa re o
130_0032 le parole batlatsi ba badulasetulo
130_0033 se ke la ba la
130_0035 kgolohadi le e bolokilweng ya
130_0037 e babatsehang e nepahetseng le
130_0038 national historic landmark
130_0039 e ye e re ha
130_0041 basebelletswa batshehetsi jjwalojwalo mekgatlong eo
130_0043 be re be re aha
130_0044 akhaonto eo o ka bolokang
130_0045 ka ba toma le ho
130_0047 ya terre firme ka ho
130_0048 venice film festival
130_0049 memorantamo o ba tsebisangka diphetohotse
130_0050 ha ke mmotsa a re
130_0052 o ntshwarele ha e le
130_0053 karabelo ke ha afihla ho
130_0055 bonngwe ka bonngwe haele mafiritshwana
130_0056 o be o di ngole
130_0057 ya kgoholeho ya monu ii
130_0059 ho ka hlahlojwang le ho
130_0060 ho phahama le ho theoha
130_0061 ho re na ke a
130_0062 ke a ikemisetsa ho pheha
130_0063 wa porovense wa kgauteng ka
130_0064 ke carlos alberto parreira le
130_0065 ha e le bo le
130_0066 e le engwe ho na
130_0068 ha ho sa na moketjana
130_0069 le ho ruruha ha manonyeletso
130_0071 ohio state university
130_0072 e rabella ka sabole ho
130_0073 bo menomasweu ba o bolayang
130_0074 mananyetsa o ne a ikgakantse
130_0075 ka kotloloho le ho kgutliswa
130_0077 lekile ka makgetlokgetlo ho o
130_0078 riemann zeta function
130_0079 matlong a rdp ho a
130_0080 wa ho fepa le ho
130_0081 molangwana molangwana oo ke wa
130_0082 o mula nthwane ya se
130_0085 dikharikhulamo di na le ho
130_0086 ba ho hlabolla botsebi ba
130_0087 ba a kwetse nqi ba
130_0088 metsing he motswalle ha ke
130_0089 ka ba le tshusumetso e
130_0090 o loileng o itoile ka
130_0091 southeast asian nations
130_0092 bosofe bo ka ba le
130_0093 a selasela theepe ya dimo
130_0094 eo o e rekang ka
130_0095 se mo tlatlapile se tseka
130_0096 mo kgothatsang le ho mo
130_0097 re ke re e tshohle
130_0098 e se e nkeme maqothe
130_0099 ha o letsetsa healthline o
130_0100 kganyapa o ne a le
130_0101 pepesehile le ho ba tlokotsing
130_0102 actor golden globe
130_0103 largest trading partner
130_0104 ke potele e kgwathwang ka
130_0105 be a sa phethise ditshepiso
130_0106 fura la ngwna ke ho
130_0107 average family size
130_0108 hlahlobisisa bokantle ba makasine o
130_0109 ka ha di amana le
130_0110 e ba ya borathuto ba
130_0111 tereneng eo ke e palamang
130_0113 e ke ke ya ipitsa
130_0114 ha di kenyeletse setroi ditlhoka
130_0115 sebolelo o mo kena hanong
130_0116 le ba bararo ba ka
130_0117 fraenkel set theory
130_0119 le sele le bohweng ba
130_0120 itshwenye le ho itshwenya ka
130_0121 e le hamethepa o e
130_0122 phethahaditswe o bolokolohing ba ho
130_0123 eo mokgwenyana ba ne ba
130_0125 football league
130_0127 mo tadima ka pelotlhomohi ka
130_0128 fetolelwe ke mofetoledi ya nkileng
130_0129 ha ho se ho tsepamisitswe
130_0130 ho itsibola ho ba le
130_0132 statistik provisionally valued
130_0133 e hatsetswang e etsuwang leqhwa
130_0134 a re leotwana lee ke
130_0135 ke ke a arolelanwa le
130_0137 ha a ne a fihla
130_0138 mosiuwa ha a ka a
130_0139 ka ha e lebisitswe diketsong
130_0140 ba jakile ho mokgatjhane ba
130_0141 edgar allan poe
130_0142 mo lebelletseng ha o mmatle
130_0143 tlaase le ha mofani a
130_0144 be a se a betsehile
130_0145 a supasupa e ka o
130_0147 tshetso ya se tegeniki ho
130_0148 milky way galaxy
130_0150 sefateng e se e mo
130_0153 le di etetseng ha le
130_0154 v ho rafoha le ho
130_0155 e ne e thehwe ho
130_0156 oo o o nwang o
130_0158 binary search trees
130_0159 ha ba di phetle ho
130_0160 kgokahano ya dikahare le mehopolo
130_0161 tela maseru ke ho tela
130_0162 mehau ke re o ntsubise
130_0163 ka sefubeng ruri e ne
130_0164 ka ha di fuperwe ke
130_0166 sa utlweng ke a ipotsa
130_0167 be a se a kgeloha
130_0168 ka ho se balehe le
130_0169 kwetswe le mafelong a beke
130_0170 ho otloloha lenanetataisong la ho
130_0171 e be se atametseng ho
130_0172 ya tlhodisano le ya boinotshi
130_0173 tsamaisanang le metantsho e sa
130_0174 mokudi ya kulelang lefu ka
130_0175 democratic national convention
130_0177 a ka hodimodimo ao ke
130_0178 ho o isa ho makgistrata
130_0179 holofetse ba qhwadile hampempe e
130_0180 ba ba ho se boloke
130_0181 ya ho fana ka ditshebeletso
130_0182 enaha se sebapallwa ke moraparapa
130_0183 tau setswetse ke o jwetse
130_0185 ya o tebetseng a re
130_0186 ahlotswe a fumanwe a le
130_0187 re potlololo ha a bolellwa
130_0188 se ke wa kgutlisa bukana
130_0189 e ne e le lefe
130_0190 le mafenethe o ne a
130_0191 o ne a sa reriswa
130_0192 fact date april
130_0194 le dibopeho tsa dipolelo ka
130_0195 la ho bolaya mosebetsimmoho le
130_0196 ya ho re o se
130_0197 early twentieth century
130_0198 mokgatjhane ba ne ba se
130_0199 ho tseba haholwanyane e ya
130_0200 le ba hlwaileng ho ya
130_0201 mohwehadi a bobotheha ke ho
130_0202 kgorong eo ho kenwang ho
130_0203 e baba tsehang e nepahe
130_0204 general public license
130_0205 a hlahela meduduetsane bokgeleke ba
130_0206 ba kgutlelang mahae e ne
130_0207 major league soccer
130_0208 ba ne ba haketse ba
130_0209 tswellisa batsetedi le ho hlabolla
130_0210 le maqwetha ba ne ba
130_0212 a ketsamelao a diprofense le
130_0213 ka foreisetata le lesotho e
130_0214 ba be ba e kgutlise
130_0215 e ne e le diya
130_0216 central intelligence agency
130_0217 re tlole ka sekotjaneng se
130_0218 le bo ka kgonwang ho
130_0219 a tantetswe ka mabota a
130_0220 ewp e be ba sebedisana
130_0221 spanish civil war
130_0222 ba palamisa le ho theola
130_0223 le madi ya ka kgotsofallang
130_0224 e ka hlodisana le dikhampani
130_0225 thuthuhang le e behilweng ka
130_0226 le e raraheneng ka ho
130_0227 ho dumella mmadi ho itemohela
130_0228 ho tlisitswe ke boitseko bo
130_0229 ke bona ho le molemo
130_0231 eo o e lefang ho
130_0232 ya ka tshebedisa no ya
130_0233 le ho loela ha demokerasi
130_0234 b sc b sc honours
130_0235 ha se pheko ke mosotli
130_0237 ho bulela bongatane le ramafothole
130_0238 boelang ke le tshohla le
130_0239 leqeme ba ke ba ba
130_0240 ho nyanyatsa dijalo ka sefofane
130_0241 united arab emirates
130_0242 ya lesokwana e ne e
130_0244 e a nyahamisa e a
130_0245 na le voutu e le
130_0246 ha ba sa new ba
130_0247 idibane se ka o tiisetsang
130_0248 kgaello e totobe tseng sebopehong
130_0249 meso ya ditshehlo le ditsikitlano
130_0253 seqhenqha sa moshemane a le
130_0254 grammy lifetime achievement
130_0257 educational institutions established
130_0258 foreign direct investment
130_0259 o fellwe ke bosotho nthwese
130_0260 ne o theosa eo ya
130_0261 o ne o kgethwe ho
130_0264 ya tshbetso ya ho hulwa
130_0265 eommae e be e tukang
130_0268 masea a siiwa le bonkgono
130_0269 dumellana mo mahano e hlahella
130_0271 hlokomela le ho kgetha dintho
130_0273 tb di ba le boitwanelo
130_0275 o re tsho o nyalellana
130_0276 o atameditse haufi le tharollo
130_0277 ke sector education training authority
130_0278 e ie ya tshiyamo ie
130_0279 ka fekese ha ho se
130_0280 ya batshwaredi board of trustees
130_0281 ho na le bolokollohi ba
130_0282 ho ne ho se na
130_0283 se le fiela ka dintshi
130_0284 le okametswe ke di case
130_0286 ho na le tshisinyo ya
130_0287 a koula ke eo a
130_0288 le khoutu ya setheo khoutu
130_0289 botleba mookodi ha lefafatsanele qetaho
130_0290 ho boitokisetso ho ya ho
130_0291 quantum field theory
130_0292 fetuwe ke lenaneo o fetuwe
130_0293 masara le ditimiti di ne
130_0294 le dikela o ne a
130_0295 temg tpp amemg bpmmete ba
130_0297 ntano mo tjhentjhela dikobo le
130_0298 o hlomolang hakaale eo ho
130_0299 be e le ho mo
130_0300 tswele ka ntlo ba yo
130_0301 ha ba se ba le
130_0302 e fuputswa ho na ho
130_0303 na o ka ya khemising
130_0304 le bohole e be ho
130_0305 ancient near east
130_0306 ba hlollwa ba re hoetsahetse
130_0307 american psychological association
130_0308 di e rorisa a ke
130_0309 ya dithaere e ka se
130_0310 khalkhuleita e behilwe e le
130_0311 ba ka ha re majalefa
130_0312 botlolo ya boranti le ho
130_0313 ke ke a buellwa ke
130_0314 e le sekowa sa kelello
130_0316 mo re he a ba
130_0317 e le la leteterre ho
130_0319 tsoke letjhoba a akgotse lengetse
130_0320 ba tshwanelehang ho ba khanseleng
130_0321 ne a ye a bitswe
130_0322 raditaba le tjhotjholosa ba ne
130_0323 a ha ho hlokomeleha ho
130_0324 ntlafaditsweng ke dishweshwehadi bomphatlalatsane selemela
130_0325 ya kheshe eo ho fanwang
130_0326 popeho ya phepelo ya dijo
130_0327 eo o ka fetisetswang ho
130_0328 ho e hlatswa le ho
130_0329 ha e le mariha ho
130_0330 ba motlolamolao ho buseletsa mo
130_0331 ho lekanya boleng ba ho
130_0332 kgannwang ke stjhaba e le
130_0335 le ho iphumanela dikarabo ka
130_0336 ha e ka ha ba
130_0337 ka fekse di ke ke
130_0338 metlae yabatho ba ekang ba
130_0339 ka mokgwa o nang le
130_0340 e le mmolai ho ka
130_0341 se ka bokellwa le ho
130_0342 ho ke ke ha tellwa
130_0344 wa ho beisa ka dipere
130_0345 national film registry
130_0346 tlameho ya boramosebetsi ya ho
130_0347 barui ka ha e ba
130_0348 ma israel le ma palestina
130_0349 islamic conference oic
130_0350 a kgomathisitsweng ho lokollweng ha
130_0351 ba a phema ba ye
130_0352 leboha kgutlana la ka ramasedi
130_0353 o ne a sa ikutlwe
130_0354 johns hopkins university
130_0355 baphetwa baa ba ne ba
130_0356 ba ne ba ke ke
130_0357 taolo ya mehlodi ya tlhaho
130_0358 rock music groups
130_0359 e etelang masea a sa
130_0360 le letsho letebele o ne
130_0362 o se ne a ye
130_0363 aids ke ba pepesehileng ho
130_0364 re ke leso ke leso
130_0365 hlephe o ne a itswetse
130_0366 ho le dintwa vmme e
130_0367 o ne a makaditswe ke
130_0368 e tobisitsweng ho phofu ke
130_0369 ho tlwaetsa le ho rupela
130_0370 a ke o qoqe ka
130_0371 ho hlekelwa sebae ka ho
130_0372 bapile ba ntshana se inong
130_0373 re ne re o tshepile
130_0374 ke bra t tshepiso a
130_0376 ka bui sana le mec
130_0377 a ne a hlile a
130_0378 ho ba eo ho sebetswang
130_0379 le fatere ba ka mmakalla
130_0380 le mosuwetsana ba ka lekanyang
130_0381 ke ha bohlokw a ho
130_0382 moshanyana ha di jewe paleng
130_0384 ba ne ba sa nahane
130_0385 internet protocol suite
130_0386 e hlileng e o hwayahwayang
130_0387 golden globe winners
130_0388 monetary fund imf
130_0389 se netefatswa ke maele a
130_0390 di kgobokantswe ho ya ka
130_0391 ke re na ha e
130_0392 kentsweng lebitleng la ramoroko le
130_0393 uk singles chart
130_0395 ho sebeletsa ho kopanngwa ha
130_0396 o potapotileng ha ba sa
130_0397 he ha re phahamiseng ke
130_0398 radiphaphatha a mo re qhau
130_0400 open source software
130_0402 ho na le mehato ya
130_0404 e tsepamisitsweng ke setsebi se
130_0405 e khutshwanyanehokarolo ya b o
130_0414 futsitse lebitsola haehobanee nee le
130_0415 clean air act
130_0416 nne o dulele ho komakoma
130_0420 e ke ke ya sebetswa
130_0421 united states marine
130_0423 a di fe tlelereke ya
130_0427 o ho tshositse ka ho
130_0432 king james bible
130_0435 ipaka ho re ha e
130_0436 new york state
130_0437 services hokenyelletswa le ba beileng
130_0439 sa lleng o shwela tharing
130_0440 e ne e le moadvokate
130_0443 ya ateraetisi ho na le
130_0448 dead sea scrolls
130_0454 a ne a le unibesiting
130_0456 e ne e le satertaha
130_0462 nobel peace prize
130_0467 se rutwang se be se
130_0470 advocate le ha ho le
130_0473 ba ba ne ba le
130_0474 o tlisitse ho tella kwano
130_0477 american free trade
130_0480 se a ne a thobise
130_0481 re le ha ho ka
130_0482 e fetileng le ba futsanehileng
130_0483 melala e tamolletswe sa kokolofitwe
130_0487 cite book title
130_0489 ne e se e ie
130_0490 ka e amohetswe ho sasa
130_0491 ya setatemente sa kharikhulamo ya
130_0494 ya papiso le ya boqapi
130_0497 ya boikamanyo e se e
130_0498 hommeng he leshodu ke le
130_0499 ka ha di ke ke
130_0501 re kgenne e le ka
130_0505 wa ditlhophiso le ha e
130_0506 emmy award winners
130_0508 ho thehwa ha makala a
130_0517 la toka le ntshetsopele ya
130_0518 apere nkwe ha e le
130_0520 o tshepisa ho ba bitsetsa
130_0521 pitikisana ba ba ba ya
130_0522 provider dsp medipost ha o
130_0524 a b c d ho
130_0532 ba mphile ka letsohong ka
130_0533 ne a le unibesiting o
130_0534 national wildlife refuge
130_0536 ho tsohwaka matjekemme ho uwemotseng
130_0543 ba le tshenyo e bakwang
130_0548 le dpsa e le ho
130_0552 a nkga a re phu
130_0554 mokoko o nwele mahe ha
130_0555 ya learnership le ha ho
130_0556 eo e sa rarollwe o
130_0559 american short story
130_0563 matlonga r d p ho
130_0565 tao te ching
130_0566 tlabidika a thwene a tsamaye
130_0572 rona wa ho keteka lemo
130_0575 ha di hlahisitswe ho tj
130_0580 e se e re putla
130_0584 le ho ja ho le
130_0586 a itherolotseng a re o
130_0587 indian prime minister
130_0591 a utlwahala e kgutshwane le
130_0593 ka ditjhipse ho e na
130_0594 ba le dvt ba ka
130_0599 tb e ne e sa
130_0600 o na le lenyatso le
130_0601 be a latole bosehla le
130_0602 o re tsosetsa maqeba a
130_0603 ho ba okametseng bo ka
130_0604 ford motor company
130_0605 ya taelo ya tshireletso ya
130_0606 romelwa ka poso e rejistarilweng
130_0607 united states president
130_0608 puong ya lapeng ho ya
130_0609 thabele manyofonyo ao o a
130_0610 kgolo la puso ya gauteng
130_0611 wa tleliniki ho o fa
130_0612 re a amohetseng a re
130_0615 manager ka ho ya ka
130_0618 qhoba bosiunyana bo le bongnyana
130_0621 a nkilwe ka boinahanelo ba
130_0622 di lese ho ipapatsa ha
130_0629 ha holoholo ha ho e
130_0630 e se e le mesuwe
130_0633 international hydrographic organization
130_0646 re ke mo letele ke
130_0648 sa ntome le ho ntoma
130_0649 ba ne ba phethelwa ditshomo
130_0651 re ha le sa mpatla
130_0652 theho ikgapela setjwaba ka ho
130_0656 american television actors
130_0664 o ne o se turu
130_0665 ka ho fetesisa ke ya
130_0666 roman catholic archbishops
130_0667 united states constitution
130_0671 new south wales
130_0672 ka tlung eo le e
130_0674 b e ka fetisetsa ho
130_0677 art deco buildings
130_0678 o bolokolohing ba ho ho
130_0679 ka pelepele boitekong ba ho
130_0680 dineo na o ne o
130_0681 ho buisana le diphehisano ka
130_0682 se phethe tsweng se setle
130_0685 american airlines flight
130_0686 di a baleha o sa
130_0687 ya e mail mosebedisi a
130_0688 di a bulwa di a
130_0689 nyalanngwa ha di rutwa le
130_0691 e le lekomonisi baokamedi ba
130_0692 samane ka seqo ho motsekiswa
130_0693 ke eo e feletse ka
130_0694 ho shejwana ka la moleka
130_0695 e menyenyane ha e na
130_0697 mokgodutswane ba o fahla bohlaswa
130_0698 ba ne ba rutelwa ka
130_0699 mawa a hlophisitsweng ka tatellano
130_0702 rolling stone magazine
130_0703 world heritage sites
130_0704 o phatladitse masedinyaneng dithelevishineng le
130_0707 ha a letsebe le sa
130_0710 mabinabine a pelo ya ka
130_0711 fact date september
130_0713 o se a re jwetsitse
130_0714 saint lawrence seaway
130_0715 le tsh wanetse ho o
130_0717 ha di a pepeswa ho
130_0718 ba le ho ritsa ho
130_0719 ho jareng kidibitla e kanakana
130_0720 nyalang ha rakgadiae a re
130_0721 tsamaelanang le tjhesehelo e yeng
130_0722 a mo sotla ka ho
130_0723 ha e hlolwe ke sebata
130_0724 mmaditaba ha o swabe ka
130_0725 ka ho teneha tjhe le
130_0726 eo tabataba e ne e
130_0727 ho ya ho e ithutwang
130_0728 soba la nale a ke
130_0729 ho na le kotsi ya
130_0730 haeno ha ba a ka
130_0731 c ebang o sa etse
130_0732 sitiswa ke hona ho nwa
130_0733 states military academy
130_0734 le phelaka ho kolla ntsi
130_0735 eo ho nkuweng sampole ho
130_0736 o halefiswa le ke dinthwana
130_0737 ata a ko qoqe ka
130_0738 o sa amaneng le baadimi
130_0739 marapo a dieta a kgaohile
130_0740 thotsela sa mmedikane ke a
130_0741 boreki o ne a sa
130_0742 e lekgatheng la lephethi e
130_0743 o e filweng potsong ka
130_0744 eo a sa e boneng
130_0746 o se ke wa pompa
130_0747 le barwetsana ban e ba
130_0748 matekwane na ha se ka
130_0749 o ne a sa phefumoloha
130_0750 le mphuthileng la mpontsha leratole
130_0751 ka etsuwa ha ho hlahile
130_0752 ya e ba ba ho
130_0754 se ke wa ja pakeng
130_0756 le ha sasc e na
130_0757 delta air lines
130_0758 ka potlako ka ho ya
130_0760 katse a se hlwella a
130_0761 sefahleho ka keketso kamehla o
130_0762 woto le komiti ya woto
131_0001 ho mofani ke mohato wa
131_0002 sebini se binang se le
131_0003 ya dikgetla ho kutwa ha
131_0004 ya ho ba le ditshwaetso
131_0005 persal e fumaneha setlankaneng sa
131_0006 le di arv di ka
131_0007 butse mokete ka pina ya
131_0008 ba o se ke wa
131_0009 ela ho ya tshedisa ba
131_0010 se o le pshasha ho
131_0011 hatisitseng ya phatlaladitseng ya bapetseng
131_0012 ka moamohedi wa setswakantle ho
131_0013 ka motswetseng ho sa hlonngwe
131_0014 ho hira ikopanyeng le moeletsi
131_0016 ne a utswitse diphahlo lebenkeleng
131_0017 oo e ho ba le
131_0019 ho raleng le ho phethiseng
131_0020 ka ha o tlwaetse ho
131_0021 ke lesira le le pudutswana
131_0022 ke ipona ke hlalefile ke
131_0023 ke tlala morolo ha e
131_0024 career home run
131_0025 be le tshwano ha ho
131_0026 le phethiso di na le
131_0028 o ne a sa mo
131_0029 se ke wa ya le
131_0030 ho hiruwa ha ka potefoliong
131_0032 ka bowena o be o
131_0033 american film producers
131_0035 ba tshedisehe o na le
131_0036 se o le ntata nnyeo
131_0037 mokgatlo oo e seng wa
131_0038 le eo e hlonngweng ke
131_0041 ha ramonate o ne a
131_0042 ne ba sa di fumantshwe
131_0043 o se o badile palekgutshwe
131_0044 ho fepa le ho nwesa
131_0045 ne e le mpho ya
131_0046 e ne e se ka
131_0047 o romelang baromuwa sebokeng o
131_0048 e rerilweng ka lekgetlo le
131_0050 dipuisanong e ne e le
131_0052 anc ha ba ne ba
131_0053 ba lefitori ha se bonwe
131_0054 ba ba hodisetsa tshabong ya
131_0055 ha re ka ra bo
131_0056 in die land wat die
131_0057 mmamenotwana towe o se ke
131_0058 e le tshesane sa theka
131_0059 ho south african revenue service
131_0060 eo ha e na mokoka
131_0061 ho ba le seabo ha
131_0062 lehlwa ha le qhibidiha dithabeng
131_0063 ne a imakaditse ka ho
131_0064 a mebileng ha di bolawe
131_0065 a ba a ba le
131_0066 di a mengwa ho thonya
131_0067 ke hora ya bohlano thapama
131_0068 pheo ke ho hlakisa ka
131_0069 ka ho ya ka sekala
131_0070 ya ho tiisetsa ditshaeno le
131_0071 diselefounu di ka utsuwa ho
131_0073 eo o e tatetseng e
131_0074 dilomo meru e kopaneng diphulana
131_0075 e a ke le duleng
131_0076 di a bela di a
131_0077 ho itshetleheng ho sa hlokeheng
131_0078 ka ke iteletse ho lwana
131_0080 a borikgwe bo botsho kausu
131_0081 a robale ka dieta o
131_0082 a sebetsa ka boyena ho
131_0083 motho ofe kapa ofe ya
131_0084 ikgethileng dihlekehleke madiboho marokgo le
131_0085 a le lebeletse le ne
131_0086 notable examples include
131_0087 se jara boikarabello ba sena
131_0088 o se a ne a
131_0089 mo qhoqhang ho intlafatsa ho
131_0090 bo hlollang ha fihlamotsotso wa
131_0091 e kenngwang dikotikoting e pakwang
131_0092 ka ho toba akhaonteng ya
131_0093 ho phatlalla le rephaboliki ya
131_0095 ya be e re elellisitswe
131_0096 mareo le mererong ya diprojekte
131_0098 lebile botsitsong le katlehong kgatelopele
131_0100 ne re ka ra bitsetsa
131_0102 hlwatswa sebae ka letoto la
131_0104 ananelwang le ho tlotlwa dibakeng
131_0107 h tswala tjheleteng ya tsetetsweng
131_0108 ne ke thabile ho re
131_0109 ya kgohlong ka ha e
131_0110 serobe phiri e se e
131_0111 seqo o se ke wa
131_0112 san diego chargers
131_0114 a sa o tlwaelang ho
131_0115 re sa natefetswe ho le
131_0116 se a kwenehetse kgarebe ya
131_0117 lora a haola meruemetala ya
131_0118 la jse le ho rekisetsa
131_0121 states air force
131_0124 late bronze age
131_0125 ha di silafatswe ke ditshintshi
131_0126 dikgohola difefo dipula le marole
131_0128 ya kutlo hcps boenjinere ba
131_0130 ho felehetswa ke memorandamo le
131_0131 prince edward island
131_0132 michigan state university
131_0133 strategic air command
131_0134 o lonngwe ke mokgodutswane ke
131_0135 a le khwaereng e ka
131_0137 free trade agreement
131_0138 e sa kgahliseng ya dingangisano
131_0140 world trade center
131_0143 phoso e tsamaya le mohatisi
131_0144 di ne di ponngwe ka
131_0147 persian gulf war
131_0148 ho na le ho kgaokg
131_0149 natural resources include
131_0150 maqephe a fuperweng ke patanta
131_0151 bonahetse tumellanong ya harare eo
131_0152 absa fnb nedbank a beyang
131_0153 fapaneng le ho ya ka
131_0154 a le boyeneng a hlaheletse
131_0155 ke ho mathakaka majwaleng o
131_0157 a re se a ba
131_0158 le ho re o bope
131_0159 skweyiya jj ba dumellaneng le
131_0160 se re sa bue ka
131_0163 kgeswa le ho bitswa mabitsobitso
131_0165 low earth orbit
131_0167 na re ne re itshwenyetsang
131_0168 ke ba ba le kgaoho
131_0170 le nna ke le tjena
131_0171 behela ba mmokanetseng a kgutlisa
131_0172 le diyalemoyeng re hlokomediswa ka
131_0173 o se ke wa ikgatella
131_0175 o kgothetse ho na le
131_0176 o re re qhelele moketjana
131_0179 quantum field theories
131_0181 a se a neheletsa leqosa
131_0182 eo ke ikemiseditseng ho shwa
131_0184 diindasteri demokrasi bokomonisi le bongangele
131_0185 mafosisa o be o tshehetse
131_0187 ka ba ke re o
131_0188 ho paka ho re se
131_0189 buddhism
131_0190 ha e phethwe ha ba
131_0191 bitswang long walk to freedom
131_0192 multi purpose community centres ke
131_0196 eo o sa tshwanelang ho
131_0198 tj hata ya tshe beletso
131_0199 o se a shwele dikweta
131_0201 e ke e mo phekole
131_0202 e netwekeng ke mohokahanyi wa
131_0203 liberal arts colleges
131_0207 ya sethethefatsi tjhefu ya khemikhale
131_0208 o phuthile le mehaswana ya
131_0209 mo kgaoletsa kahara serapa sa
131_0210 wa semetletsa wa ho le
131_0211 ho sa na le ho
131_0213 harvard university alumni
131_0216 united states secretary
131_0223 ho kenyelletswa le la keresemese
131_0226 president abraham lincoln
131_0228 ya e ekeditsweng ke s
131_0230 sa o tlwaelang ho se
131_0232 le mtshwao a tshupo a
131_0237 a tshabehang a lefifi ho
131_0238 itlama ho se behe saps
131_0239 e ka letsohong le letshehadi
131_0240 felehetsa ho kgutleha hlakoreng la
131_0241 ba ka hodisang dipoelo ka
131_0242 ho ne ho ithabiswa ka
131_0243 ha e se e otla
131_0244 cricket world cup
131_0245 tlhapa e ne e sa
131_0247 e re nengneng a eme
131_0248 ba se ke ba nyantsha
131_0249 ba bangata kamoo ho ka
131_0250 ke ke ya leshwa ke
131_0252 e lethwethwe o elellwise mokomishenara
131_0254 le ka madungwadungwana ho ya
131_0256 e sa le e qheletswe
131_0257 profeshene e se e kgathile
131_0258 wa mautse ha dubeha ha
131_0261 hadiindaseteri ho arolwa ha diindaseteri
131_0262 le maqheku a lenyalong ba
131_0263 ka ho nyaroha e e
131_0269 na ie seoa se unang
131_0273 be le ho fapoha dipallong
131_0274 ha a na anyalwe a
131_0275 e ke be e rutile
131_0277 e se ke ya ba
131_0278 e ne e le nthho
131_0279 e le o rarahaneng ho
131_0280 bodileng matshwele a sollang a
131_0281 a di utlwisisang le ho
131_0282 le kutlwisisano dihlotshwaneng ke se
131_0284 ka hanelwang ho ba le
131_0285 council for natural scientific professions
131_0286 dikhampaning dikoporasing le baleming ba
131_0288 le ho seholla mmateboho habohloko
131_0291 a ka be a sa
131_0294 na ba se ba thusitswe
131_0295 cite journal title
131_0297 re re re qhwaolla kobo
131_0298 southern african development
131_0300 lerumo ho kgabola kanono moela
131_0301 obitjhuari ka ha le ne
131_0302 le ho se utlwane bara
131_0303 hatabatsabatho ke ha a le
131_0305 ho tiisetswa e le ya
131_0306 mafellong a mesifa di ba
131_0307 a mo jakisa jareteng ya
131_0308 re se mo tlatlapile se
131_0309 ba angwang le ho tshwaetswa
131_0310 na o kgathatswa ke lesokolla
131_0313 ho re ho se be
131_0314 ho ba ka hodimodimo lenaneng
131_0315 a ne a re re
131_0317 ke sa na boikgethelo ha
131_0318 ke batlatlapi ba ikotlang sefuba
131_0319 e re ke o bolellennete
131_0320 ba reke dijole ho patalla
131_0323 million years ago
131_0325 tlhwekiso ya matlwana ke le
131_0326 naval air station
131_0327 re re ye wits ka
131_0328 ho registrar of animal improvement
131_0329 ka ke sa tsilatsile le
131_0330 ho ne ho se ho
131_0331 ba sireleditswe tlhekefetsong le tlontlollong
131_0333 di fumanehe khomputeng ikopanye le
131_0335 east asian countries
131_0336 be o iphasa ka lerapo
131_0337 le ho phomosetsa bamemuwa ba
131_0338 makuleke kruger national park dinaheng
131_0339 a setso le a sepolotiki
131_0342 na le ho kgaokg aoha
131_0343 kgolong ya ka le tshiung
131_0344 motsotswana ha e le difelekwane
131_0346 uke ichi ni san ji
131_0348 ha e le ee dihora
131_0350 le ho akofisa bonamo le
131_0352 mokuru o se o sibile
131_0353 ba kgethetsweng ho ba diroki
131_0354 e be re ke ke
131_0355 original game boy
131_0357 a tsweretse sa tweba e
131_0358 ke ne kekopa matlaa ho
131_0360 on financial awards pfa dinnete
131_0361 ke ke ha o tswela
131_0362 ha e ba a na
131_0365 ha e be ke ee
131_0367 ha ho ne ho sa
131_0369 e ne e le senokwane
131_0371 a le ka mokgorong a
131_0372 ke ke a phonyoha ke
131_0373 tekanyetso e tswellang ke lewa
131_0374 ha ho na pilisi enjekeshene
131_0375 arotswe ka mekgahlelo e meraro
131_0376 palestine liberation organization
131_0377 ke ke ba toboketswa ho
131_0378 united states capitol
131_0379 a re o se a
131_0380 re ka be re di
131_0381 di batlisiswe le ho salwa
131_0382 poraevete k h r ba
131_0384 services development plan wsdp e
131_0387 ka ho re tselatshweu matebele
131_0388 le ho se ikamahanye le
131_0389 dikoloing ho ya ka ho
131_0391 thonya bonkgetheng ba loketseng ho
131_0393 ho nehelawe ka tataiso ho
131_0394 ho okamelwa ke ditlelereke phethahatsong
131_0396 hlwauweng ka ho ya ka
131_0400 mo sehollake a motsholele maqa
131_0401 dipotongwane ho re tshiu di
131_0403 ba ka a ka tshababeatrice
131_0404 dumedise ka ho re dumelang
131_0405 le e atlehileng ho fihlellwa
131_0406 articles containing video
131_0407 kotopi le sebuweng ke ya
131_0408 setshwantsho se se hlalosang neha
131_0409 ne a se a thotse
131_0410 batshosi ba tsohellang masimong esale
131_0413 sefifi sa phoofolo e shweleng
131_0414 e qotsitswe le ho lokisetswa
131_0419 lehlokwana le finnweng lefito o
131_0420 motsokapere o ne a na
131_0421 se ba e butswela ba
131_0422 ho ruruha ha manonyeletso di
131_0426 atomic energy agency
131_0427 a se a sa tlwaela
131_0428 major league record
131_0429 tshositse ka ho o bolaya
131_0430 mafotholeng e ne e le
131_0431 re le ne le le
131_0432 e thehilweng ho nyehelo ho
131_0433 ya be e se e
131_0436 o robetse a opelwa ke
131_0439 le hodiswa le ke dillo
131_0440 o tlohelle ho tjha ntshi
131_0445 cape breton island
131_0447 ya ho finyeletsa ditshebeletso bathong
131_0448 o ne a amahanngwe le
131_0449 e bapalwang ke motshireletsi wa
131_0450 ba thontsweng ke sacnasp professional
131_0451 minister margaret thatcher
131_0453 mashaeng empaha ho a ka
131_0454 bo bong le bo bong
131_0455 engwe ho na le ho
131_0457 sa tlhatlhobo le f ho
131_0458 e siuwang poleseteishene ke ya
131_0459 le ke na le toro
131_0460 ha ho tluwa mangolong a
131_0462 kansas city chiefs
131_0463 di fihlile mohwang e sa
131_0464 tsatsi le tjhabang le le
131_0467 o sa ka wa re
131_0468 ho ya dihela dikgala sware
131_0472 le sekgobo ho qhellwa ka
131_0473 eo na o ne o
131_0474 ya ho hira ikopanyeng le
131_0475 ya mmampodi kgwaolla ditswakotleng jm
131_0476 south west england
131_0478 o e tlatse ka ho
131_0479 e tswalwang ke metsetso e
131_0480 ho kopanela tekenoloji phetisetso ya
131_0483 le bothong o ba le
131_0484 re makau ke sebapadi sa
131_0485 le vii ho diswa ho
131_0486 ya eommae e be e
131_0489 la ka ke se ke
131_0491 le halofo ho isaho a
131_0492 bronze star medal
131_0493 hlokahallwa ke eo o mo
131_0495 roman catholic monarchs
131_0497 ne le le mading a
131_0498 fact date december
131_0499 toustu bisekiti le raske dinong
131_0500 ditaba maikemisetso maemo le sebopeho
131_0501 ya ho ingodisetsa sephethephethe e
131_0502 ba dipatlisisomme a mo eletse
131_0505 sehlooho se sekasekwa le ho
131_0506 ne a sa mathe o
131_0507 belehwa ha e ba ntshe
131_0508 ho ya moketeng e ne
131_0511 dikgoka le ho kwena ha
131_0512 kasefuthu le ka lekgetlo le
131_0513 potlolomente e sootho e mabanta
131_0514 ba a tsieleha ha ba
131_0515 o sa hetle le ka
131_0517 ya kekeletso ya ho ba
131_0518 ho tshwaetsa ho phatlalletseng ha
131_0519 matsapa a ho ntshampa eo
131_0520 prime number theorem
131_0521 ba a re nyatsa ha
131_0522 thabisa difofane le dikgoba dihlokaboya
131_0523 ke ya html le ha
131_0525 a botona marong a ntshuwang
131_0526 monyenyaneyena o ne a enale
131_0527 mebaraka e bulehileng kgwebisano ka
131_0528 ho na le ba babe
131_0531 ho na le qhoku e
131_0534 qoleng ho ya motsong wa
131_0535 canadian prime minister
131_0539 e a fokola maano a
131_0540 makopanyi maemedi le mahlalosi ho
131_0541 ho hlwekise khotone le h
131_0544 ho itsebahatsa le ho utlwahatsa
131_0545 ho ya hlwekisa le ha
131_0546 leruo le utswitsweng jj le
131_0547 ke ya di heleng ho
131_0549 a sa kgotsofatse tleleime ya
131_0551 ya phahello e lebelletswe ho
131_0553 a rabaraba v o ipotsaka
131_0554 se sebapallwa ke moraparapa wa
131_0555 nyahlatsa pistolo le mahlahlelo a
131_0556 le matheriale oo mohiruwa a
131_0559 re ho etsahalang hantlentle na
131_0560 mofuthu ha o ne o
131_0563 e shweleng e ne e
131_0564 aithunya ho ne ho sa
131_0566 a e ngotseng le ho
131_0567 ke a iketsisa ha ke
131_0568 phethelwe ha ho thetheswa bohadi
131_0569 on o hlomphehileng ha kana
131_0570 wa bonaha re se re
131_0571 e sa ntsane e le
131_0572 state university alumni
131_0574 qale ho ebesela a ntjhafale
131_0575 ke ne ke re na
131_0576 sa madibase mo nyeka hotloha
131_0580 ha ho na ntwa e
131_0581 ba ne ba sa di
131_0583 mohlohlwa o rapame se a
131_0584 le amo kodisa a be
131_0588 di iketlile di ja lekomo
131_0589 la ka ke dudu re
131_0590 market prices estimated
131_0591 ne a sa halefe vmotsotso
131_0592 ha mothendari a ka phumola
131_0594 ho mphara ka mashano a
131_0595 ke re llang le bokolleng
131_0597 major professional sports
131_0598 le kgabisa ka bophatshwana ba
131_0600 ya boitsebiso ho thibela pepeso
131_0601 capital di tiisetswe ke notary
131_0602 gdp growth rate
131_0604 llifi ya ho se itekanele
131_0605 ha ba le pherekano eo
131_0607 a re o a o
131_0611 a ba a mo suna
131_0612 ya mametseng a be le
131_0614 ne a re re ye
131_0615 maphodi o ne a phodile
131_0616 freedom charter ha e re
131_0618 nakanaka le masiu ke ho
131_0620 ya hoeletsang he e i
131_0622 a sekametseng ho tshabiseng ka
131_0623 western new york
131_0624 e se e le mantsiboya
131_0625 ke re ke mo hloile
131_0626 average annual temperature
131_0627 partially ordered set
131_0628 kgurumbala ke ofisiri e ka
131_0629 a tshepana le abelana diphiri
131_0630 mo furalletse ka ha ho
131_0631 world chess championship
131_0633 e ba batsehang o tshehetsa
131_0634 le qhalana ha a busetswa
131_0636 ka ya poropaganda le dipapatso
131_0637 ditlhaselo di ka fokotswang ka
131_0638 ho bayoloji le khemistri ho
131_0639 mekgabiso le ha o ka
131_0640 e le ha a iphetetsa
131_0641 le foforehang la thajana e
131_0643 raditshehwane a itshehela a ba
131_0649 e be e tshehetswe ka
131_0650 mokgosi marulelong e be le
131_0652 ha e holelwe ka ho
131_0653 e meputswa ho rwetseng diborele
131_0654 johannesburg le durban le polokwane
131_0655 board of trustees bot le
131_0657 ka phaposing ya ho rutela
131_0661 mafisa e ne e le
131_0662 akgaruma ka ho kgena ho
131_0663 a re two two umthetho
131_0664 university college london
131_0665 ba ka tsosolosang diboto ho
131_0667 german high command
131_0668 e bodutu ke tsullung ya
131_0669 human genome project
131_0670 sefako sa dikulo difensetereng le
131_0672 o na le pono e
131_0674 o tshehisa ho phoqa hahaha
131_0675 mo sentseng o se o
131_0676 le ho tlatswa ha dikgeo
131_0677 received mixed reviews
131_0678 ha ke re ke hlalositse
131_0681 boladu o ke o tlohele
131_0683 le ho ba tlokotsing ya
131_0685 ba seretswe ha mefenetha a
131_0687 ba ka ba ne ba
131_0689 page history link
132_0001 ka ho ja direthe ke
132_0003 o be monyebe ha o
132_0004 lepatlapatla ho ya e laumela
132_0005 ho ya ipatlela makgulo a
132_0006 amohelehe le ho fihleleha ha
132_0007 ntlafaditsweng le ho matlafatswa ho
132_0008 ho ba mookamedi kopanong e
132_0009 ha ba mmolella ho re
132_0010 pampitshaneng e kgolwanyane e be
132_0011 le ha mohatsaka a ne
132_0012 ho phefomoloha ha ho hotle
132_0013 ke ho re na e
132_0014 ya sehohwana le mmutla e
132_0016 ba wa boitsekong ba ho
132_0017 se bolou se ntshiwa ha
132_0018 golden globe film
132_0019 e mmedi eo o ithutileng
132_0021 eo ho ka ikiswang ha
132_0022 na polelo e latelang ke
132_0023 ke ha eo a e
132_0024 o ne a opelwa ke
132_0025 ka ntshwe di sa fohlwa
132_0026 french west africa
132_0027 ba etsajwalo ho ya ka
132_0028 o ntshepisa mahodimo le mafatshe
132_0029 o ne a iballa khomiki
132_0030 ba ra mo etsetsa meetlo
132_0031 a bokolone le apareteite a
132_0032 lekgaba la poone le omeletse
132_0033 ka se phele ka ho
132_0035 mmantshele eo wa letekatse ha
132_0036 re ho se ho le
132_0037 se ke wa lebala lenanetsamaiso
132_0038 o ne a tlamme moriri
132_0039 ya sedika sa ho voita
132_0040 o re ha o sa
132_0041 moiketsi ya sa llelweng ho
132_0042 ne ba ka qoqaqoqa ho
132_0043 o ne a ipolelletse ho
132_0044 ka fepelwa le ho adima
132_0045 dipetlele le ditliliniki le ho
132_0046 ho phatlalatsa le ho bapatsa
132_0047 citation needed reason
132_0048 le ombudsman le fsb di
132_0049 a thunngwa le ho bolawa
132_0050 ho ntsha mosi ka lengope
132_0051 mokitlane ba ke ke ba
132_0052 a itshebeletsang ka bo oonaempa
132_0054 e bohlokwahadi ya ho sebeletswa
132_0055 o se ke wa mo
132_0056 o tlwaetseng ho ba hlorisa
132_0057 foufetse ba holofetse ba qhwadile
132_0058 tshophodi di ka utlwisisehang ka
132_0059 ho be le hlahlobo le
132_0060 ba naha ya afrika borwa
132_0061 e tlotlwang ke e fetisang
132_0062 e be ba sebedisana le
132_0063 papatso ee e reretswe bomang
132_0064 ha di loke ho ya
132_0065 sethaleng sethaleng e kgaolwa ka
132_0066 fihlile bokgutlong thabo ya mmatseko
132_0067 masilo o botswa o bohlaswa
132_0068 diqwedi di be kgahlamelong ya
132_0069 re ka a fenya ka
132_0070 le motsheare ka ema ka
132_0071 e sa kgaotseng ditoropong le
132_0072 o ne o sa e
132_0073 fotse le ha ho le
132_0074 e ka hlahang e sa
132_0075 ke wa ya le kgongwana
132_0076 manala onaa le malelele ho
132_0077 ho ne ho itswe pula
132_0078 ka ba le koitara koitara
132_0079 mohloka ho thetwa itekele itekele
132_0080 ka ramasedi ho rialo mohau
132_0081 ho monya jusi e hwamisitsweng
132_0082 ya maminanyana o se a
132_0084 ho imelwa le ho imelwa
132_0085 mokgeng wa mashala di fokotsehile
132_0086 amanngwang le ho namela mafatsheng
132_0087 bodiba ba mahlomola boo ke
132_0088 o ka wa mo palla
132_0089 b le c di na
132_0090 di etsahetse ha ba le
132_0091 e ne e le lethathama
132_0092 ka bapiswang le a botjhabatjhaba
132_0093 ba ka ke nonne ho
132_0094 british overseas territories
132_0095 o se nyahame o na
132_0096 o ne a ya le
132_0097 le mahaha le lebe letsopa
132_0098 botlaila bo ne bo kanna
132_0099 e ke ke ya lefellwa
132_0100 la batjha ba kenelang dithupelo
132_0101 o a holahola o a
132_0102 hoseng e sa le ka
132_0103 a re aparetseng re susumetswa
132_0104 di re thobela diponono di
132_0105 pokola eo e nenge mo
132_0106 thubile dijana ke ho dubakana
132_0107 ho hlekwahlekwa boipepeso bo sa
132_0108 a nenga ntsea dutseteng a
132_0109 ba ne ba kopanele tulong
132_0110 a b ya e le
132_0112 c ha ho ya ka
132_0113 tsatsona di ka ba le
132_0114 lotlobong ho ya ho le
132_0115 e mpehile merebele e le
132_0116 e ne e le lengwee
132_0117 na setsomi se ne se
132_0118 oo ba mo lwantshang ha
132_0119 ikopanye le moofisiri wa tshwaro
132_0120 programming language family
132_0121 res ipsa loquitur
132_0123 ee e ne e le
132_0124 ya mebala ya puisano ya
132_0125 ha e le lefapheng la
132_0126 dithelevishenehammoho le ba masedinyana ba
132_0127 teronko e ne e mo
132_0128 a tlohelletse ditedu di le
132_0129 tshola tlhako morong o qatile
132_0130 common law jurisdictions
132_0131 se ne se sa mo
132_0132 ralweng ha diterene merafong ya
132_0133 la thefuleha ha firi a
132_0134 ho esoka ho ba le
132_0135 re he a tlelwa ke
132_0136 o ne a nepile ha
132_0138 ka phallelaho sylvester ho mo
132_0139 ha be ho se ho
132_0140 le ba tjametsweng ke bohloki
132_0141 hlahlobo eo ya makgaolakgang ee
132_0144 bokgalala lemaikutlo a phodileng a
132_0145 ho ya di bohela le
132_0146 pope leo
132_0147 ha a ne a ka
132_0150 le ho etsa bonnete ba
132_0154 kgahlwa ke none e hlotsa
132_0155 ii ha bo na le
132_0156 van der rohe
132_0158 a mo tjhehelang leraba e
132_0159 ho ntshuwa ha batshwaruwa ka
132_0161 na le ho ja papa
132_0162 following table lists
132_0164 basari ya ithutang ka ho
132_0165 teana le pela di falla
132_0166 ka lesaka ha ke ne
132_0167 o ne a tadimeha a
132_0168 le seatla ke nyenyeula eno
132_0170 eo a ka ba le
132_0172 lebitsong la seteishene sa teko
132_0173 se a mo hlekefeditse ka
132_0174 greek new testament
132_0175 pope john paul
132_0176 ha ho na moabi wa
132_0177 sa ntsebisa le ho ntsebisa
132_0178 a ka a re khuu
132_0179 ke re le ha ho
132_0182 ho nyefolwa ke ba bohadi
132_0183 nepile ha a ne a
132_0184 sena e ne e le
132_0185 mokoting di hohelwa ke kganya
132_0186 ke ho re dimela mofuteng
132_0189 royal albert hall
132_0190 o na le akhaonte ya
132_0191 eo tabake ne ke e
132_0192 re o ne a ke
132_0193 haho se ho ropoha bahlankanyana
132_0196 ha ba sa bolayane ba
132_0197 ka re papatso ee reretswe
132_0198 o laolwe ke ba kahodimo
132_0201 ho be le kgonahalo ya
132_0202 ya invoisi e ntshitswe ke
132_0203 ke na le tumelo e
132_0204 sa etseng phaello di npo
132_0205 ya poone sorghum le pasta
132_0206 ho ne ho e na
132_0207 borokgo bo tshelelang kamotseng ya
132_0209 e be ho se ho
132_0210 ka sheshe le ha e
132_0211 ka ho re a ye
132_0214 ho ba se be le
132_0215 mookgo a phaphama maipato a
132_0216 la ho neelana la ho
132_0217 le halahlamang o ne a
132_0218 phepetso eo ba ikemisetseng ho
132_0219 a ne a sa le
132_0220 ho mahlatsipa a bo tlokotsebe
132_0221 ha ke re ke ntsha
132_0223 sa tsejweng ka kgalaseng eo
132_0224 ho la riphaboliki ka ho
132_0225 ho ya ka bomeo bo
132_0226 c ho se nwe teye
132_0227 ludwig van beethoven
132_0228 ho qholotsanwa ditjhaba di telela
132_0229 ho lekodisisa ho ya ka
132_0230 di a bata ha ke
132_0231 ya seterata sa motsana oo
132_0232 ke ho re karate ha
132_0233 thoholetswa eno ha ke hane
132_0234 ne o batlwa ke mookamedi
132_0235 ke tlakana le a raha
132_0237 ntsubisa seneifi ke a o
132_0238 se kgetholle ka morabe le
132_0239 eo o e kopang ho
132_0240 south sandwich islands
132_0241 ha e le mo ho
132_0242 phetohonyana e makamakatsang eo a
132_0243 ha a fetohe o a
132_0244 difate o ka nqane ho
132_0245 peparemente le tjhokolete di ka
132_0246 ke mosbetsi o lenama o
132_0247 eo a akgela pitlahadi ya
132_0248 ho mongodisi wa di gmo
132_0249 le mafenetha o ne a
132_0250 a be le kutlwelo ditlhokong
132_0251 le ya ho itlhokomela ka
132_0252 ha le ne le nyalana
132_0253 lepetjo la dihlomo la la
132_0254 ha dikolo di se di
132_0255 cite journal author
132_0256 ya kgethuweng wa manyalo ho
132_0257 le mafolofolo ao se tsejwang
132_0258 le ho nyehela ka ho
132_0259 e qaphaletswa ke bosiyo ba
132_0260 mmangwana o tshwara thipa ka
132_0261 ho ya ka leano la
132_0262 eo ngcobo nkabinde le skweyiya
132_0263 katiso di so ka di
132_0264 united kingdom parliament
132_0265 ke o inele matsoho metsing
132_0267 ho kgaoha ha phepelo ya
132_0268 molecular orbital theory
132_0269 e f le g ha
132_0270 letjholotjholo mmamaqheka e le ka
132_0271 tsitsang le ha e le
132_0272 hiriswangmotsaneng o ka thokonyana ho
132_0274 ho beleswa ho phaellang ho
132_0275 a keqa a sarelwa a
132_0276 atehileng le tsepameng nlheng ya
132_0277 re ne re ya ka
132_0278 ya moipiletsi e nehetsweng ho
132_0279 e ne e le tjaka
132_0280 ho se na tlamo ya
132_0281 disane le bodiponkonono banaba hlodiyang
132_0282 le lehlokwa bo ha ke
132_0283 a na le bahlankana ba
132_0284 daar is baie klinieke in
132_0285 broad based black economic empowerment
132_0286 la phytosanitary ho nppo ya
132_0287 batantshi ba e hatakela ka
132_0288 ya ka o besang o
132_0289 nehelanong di sebe disitswe ka
132_0290 dikgaretene mekgabiso ya ka matlung
132_0291 e ka ba sesupo sa
132_0292 le pansalb doe le dpsa
132_0293 bolokwa khomputareng bakeng sa direkoto
132_0294 ke ha a ne a
132_0295 re ho se be le
132_0296 sa le tshwantshe le la
132_0297 dumeletsweng medicine price list mpl
132_0298 ho o balla lehla kore
132_0299 le ho kwallwa ha ba
132_0300 le ba angwang le ho
132_0302 ho abelana tlotlo ha re
132_0303 ho bata horeo yentle le
132_0304 a di pata matlwaneng a
132_0305 o ne a sa utlwusise
132_0306 qwaile ka ha a ka
132_0307 wa poulelo le wa ho
132_0308 le tshebediso ya matshwao a
132_0309 jwetswa o bonwa ka dikgapha
132_0310 ya dikantoro office administration ka
132_0311 science fiction writer
132_0312 ne ba sa ba ratesise
132_0313 tshwanetseng ka ho ya ka
132_0314 senna o se ke wa
132_0315 o qollehang o ka thehwa
132_0316 adv johnny de lange ke
132_0317 ye ba itokisetse ho ya
132_0318 a ikemetse a ikgannale ho
132_0319 a theohang fora thae le
132_0320 nuclear chain reaction
132_0321 ya kgumamela ka ha ba
132_0322 ka peipi ya kenyomoya e
132_0323 a ditlhabollo tshokollo ha ba
132_0324 new democratic party
132_0325 o qela ka qenehelo le
132_0326 bonkeka ba di tlwaela kapele
132_0327 ba ne ba re o
132_0328 karete eo o memelang ba
132_0330 e hlahang sehlomathisong sa a
132_0331 ho be ho petsohe le
132_0334 tsitlallela ho tlisa katleho ya
132_0335 wa batsoeneng eo kadikgomo a
132_0336 nthuse joo hi a kgwatjhoha
132_0337 ho bapatsa le phapanyetsano ya
132_0338 a atileng a tb a
132_0339 ha ho sa na ka
132_0340 ho ya ho ya ho
132_0341 sa le ba o rerela
132_0342 ditlamatlama ba ka o phekola
132_0343 la sesole la bothori le
132_0344 ke badimo ba mmontsha leru
132_0345 ho ne ho ka ba
132_0346 israel defense forces
132_0347 ba ne ba qhomaka ba
132_0348 league baseball team
132_0349 ya pulo le ya kwalo
132_0350 e atlehileng ho fihlellwa ha
132_0351 ha re hle re di
132_0352 ho na le tlhokeho e
132_0353 ka b o kgoni bo
132_0354 ho re ke kereiti yabohlano
132_0355 a morafong oo a bea
132_0358 re ne re itshwenyetsang ka
132_0359 ba ditokotoko ba ne ba
132_0360 o mo ja a le
132_0361 a foreshe a bonojana ho
132_0362 sa tswalo le karata ya
132_0363 ba mo foseditsenge ie ha
132_0364 tshwaya ke maikutlo a motshwayi
132_0365 ho ba bangodi babohi le
132_0366 a ntshahlooho ka dikobong a
132_0367 le ho kgannelwa bohatong e
132_0368 boronkhaetisi le nyumonia ho e
132_0369 wa difate o ka nqane
132_0371 british foreign secretary
132_0372 le re ha le sa
132_0374 khomeshenara wa dikano ke ho
132_0376 eo a ke keng a
132_0377 le tshibollo e fihletsweng ka
132_0378 kaana o iteta o re
132_0379 ke be ke wele ka
132_0381 ho ba le dikri ya
132_0382 california state university
132_0383 qabang ya ka le ba
132_0384 di kakatwa ba ne ba
132_0385 kgotjwa e le maoto mane
132_0386 mo nyala le ha a
132_0387 ho na le ho se
132_0388 le ha mofammere a mo
132_0389 b c d e ho
132_0390 ya my wellness ya webosaete
132_0392 a sa ka a tsotellwa
132_0395 le ho re fotseke ntjeng
132_0396 ke e ba batsehang o
132_0397 sa rutehang ya bolotseng ya
132_0398 ke re o mo hlale
132_0399 e nngwe le e nngwe
132_0400 internet service providers
132_0401 lethoko o ne a tadimane
132_0402 sepikara ke motlotlo ho tlaleha
132_0403 ne o re direkoto pehelo
132_0404 nakwana e re nengneng a
132_0405 ha metjhini e se e
132_0406 dibeso le dikhemikale le ho
132_0407 wa monahano daekramo tjhate e
132_0408 eo e sa hokahaneng ka
132_0410 o sa re natsa ka
132_0411 na o entse kopo ya
132_0412 president barack obama
132_0413 e tebileng ya phetolelo dipuong
132_0414 ya laesense ya ho kganna
132_0415 ke sefeng se re tlisetsang
132_0416 ya vii c le ya
132_0417 le mathaka ba ne ba
132_0418 ba ho se be le
132_0420 e ke ke ya itshetlela
132_0421 ho kgwathwa ha konopo ya
132_0422 e balletsweng e le e
132_0423 states armed forces
132_0424 jwaletjena o ne a se
132_0425 ke ha a shoba mathobisa
132_0426 amohetsweng le ho ya ka
132_0427 tlokoma ha ke ne ke
132_0429 topological space
132_0430 o ye a re ngwanamahana
132_0432 o se a re ptjangptjang
132_0433 otto von bismarck
132_0436 ya sa di hadikelang ho
132_0437 ho qhekanyetsa wa mphato ka
132_0438 le ha ho ya ka
132_0439 ne ke sa mmone le
132_0441 le molatswana o phallang lesodi
132_0442 ka be o di sebeditse
132_0443 ha ho bapiswa le ho
132_0444 le ne le le lekgubedu
132_0445 ho bafani ba tlhokomelo ya
132_0446 application programming interface
132_0447 ho ya ka kutlwusiso ya
132_0448 lata moya hole o a
132_0449 soviet socialist republics
132_0450 se kgwatha senare sa katara
132_0451 mohopolo o hlahisitsweng moleng o
132_0452 o qakile ke ha ke
132_0453 e qaqisitsweng sehlomathisong sa a
132_0454 le ya metjhining e betlang
132_0455 di bapisa ie ho di
132_0456 captain james cook
132_0457 semomotela pabala twadi e padileng
132_0458 ho be le tsamaisano le
132_0459 sekiri sa ho hama e
132_0460 eo ke e palamang ka
132_0461 re ka ha ditifikeiti di
132_0462 o ke ke wa kotjwa
132_0463 hoya kamelao e kamorao no
132_0464 ditonele dikwari le ho ripitlwa
132_0465 pheha o bohale le ho
132_0466 ke mo tshabang ho nkgisetsana
132_0467 single transferable vote
132_0468 mo rekela motjhini o rokang
132_0469 ya dumelletsweng wa tlhakiso diofising
132_0470 kgutsitse tu yaka ha ho
132_0471 e se e le morwetsanyana
132_0473 baithuti ba mophato o mahareng
132_0474 internal combustion engine
132_0476 e le baneng le ditsamaiso
132_0477 le lera la lefufuru lefufuru
132_0478 ho lebeletswe ho ya ka
132_0480 wa kgodiso eo ntataemafikeng a
132_0481 ha ke ne ke pepile
132_0482 e kgonahalang le e ntshetsang
132_0483 ba mohlomphehi seeiso mohai slp
132_0484 coronary artery disease
132_0485 ha ba hopolamora eo wa
132_0486 ha e le bankeng e
132_0487 ha a se a bolaile
132_0488 o ne a lebohuwa ka
132_0489 o se o lahlehetswe ke
132_0490 e ne e le modumedi
132_0491 a lohilweng ka therisano le
132_0493 boholoholo ho ne ho na
132_0494 sa ba utullang dipatilweng ho
132_0495 ba di embryo di ova
132_0496 ke toloketswe le ho hlalosetswa
132_0497 mahlaba ha ba mmolella ho
132_0499 ba ngodise sehlopheng sa bolo
132_0500 le se ke la nkella
132_0501 le ka la re arohanyang
132_0502 sa itekanelang ba tsofetseng le
132_0504 ha e sa le yo
132_0505 church turing thesis
132_0506 asian financial crisis
132_0507 dibanka mabenkele a mabenyane dikgwebo
132_0508 studio le setsha sa transmishene
132_0509 di se di le mothating
132_0510 a se tlohellwe a ntshe
132_0511 ba sa ngodisang ha ba
132_0512 ntshetsopele ya molao wa motheo
132_0513 o mogn oo ba o
132_0514 soviet red army
132_0515 early church fathers
132_0516 ke mokgathala oo ke sa
132_0517 boele o fapose le ho
132_0518 la re ke le nyaye
132_0519 ha e a ka ya
132_0520 re ke mo hloile hampe
132_0521 wa dulela ho rabaka tje
132_0522 he e ye e mmalehele
132_0523 berne convention berne convention ke
132_0524 le meho polo ho lekaneng
132_0525 metal gear solid
132_0526 se sa lekanngwang se ke
132_0527 di mesana ba ka o
132_0528 ba matshwele a baqobelli ba
132_0529 ke thabele manyofonyo ao o
132_0530 ho ba o ba nehe
132_0531 ya deedsweb ka ha ho
132_0532 ke sehwa ke letswalo ha
132_0533 ka dikelello le ha e
132_0534 ho tliswa ke tshebedisanommoho e
132_0535 le lefatsheng la komello mahwatateng
132_0536 kope ho o fa setifikeiti
132_0537 north west company
132_0538 la ho hlahloba la rebate
132_0539 mosuwehlooho a ne a mema
132_0540 ha ke ne ke re
132_0541 british armed forces
132_0542 e le bahlodi e le
132_0543 ho re senolela mofehelo ya
132_0544 ha ke a re ke
132_0545 ba di faetseng makgistrata a
132_0546 hlomamisa dikomiti ho ya ka
132_0547 ho se na moloko o
132_0548 palesa o mo sheba ka
132_0549 le ba ma komonisi le
132_0550 le ho ja re sa
132_0551 a kopanang le sekweta se
132_0552 se a thusana se arolelana
132_0553 e phethahatswe le c nkela
132_0554 le tshwaneleho ya ho ba
132_0555 ne di sa susumeletswa ke
132_0556 ka mawala a hokahantsweng a
132_0557 a be a hatise pasa
132_0558 sa lepoqo ha se kgutse
132_0559 o atlehe e le ka
132_0560 ne a ye a sadise
132_0561 se a retlile moletsane ka
132_0562 tu ka ho panya ha
132_0563 ba di je ba ke
132_0564 ha a sa batlane le
132_0567 na e be le a
132_0568 ne a sa itlwe ka
132_0569 ba nebasena boipuello o ne
132_0570 re o kgopo le ho
132_0571 se o fihletse qeto eo
132_0572 bonwang le ho ya ka
132_0573 ho ya ka merabe moetlo
132_0574 wa bodumedi gospel o sa
132_0575 established diplomatic relations
132_0576 e ka hirisetsa khamphani ya
132_0577 le phumantso e ntlafetseng ya
132_0579 e sebeletsang e ikaraballang ho
132_0581 ho ekets boikgathatso ba ho
132_0582 le ho nkelwa dikoloi ha
132_0584 ho buuwang ka yna e
132_0585 sa khiro se saennweng ke
132_0586 o di tsebise ka kopano
132_0587 o qeta o be o
132_0588 e na le boikarabelo ba
132_0589 ho ya ka dikereiti mephatong
132_0592 le ho nyonyehang le ho
132_0593 le ne le sa re
132_0594 ke ya ba mothusi wa
132_0595 ka rarolleha a ke o
132_0598 nyumonia ho e na le
132_0599 lata mohatsae le lesea la
132_0603 ho ke ke ha ntswela
132_0607 le ha e le ka
132_0608 ka ya ho masepala wa
132_0609 kgathatse o ikgothatsa ka ho
132_0611 ne e re e le
132_0612 re mathibe o ne a
132_0613 ho ya ka boinahanelo ba
132_0614 grand theft auto
132_0615 ba e se e le
132_0617 video music awards
132_0619 ka ho kgaokgaoha le ka
132_0621 ka ha a ne a
132_0622 ha a bala le ho
132_0624 o a mo honohela ka
132_0626 ba ha e be ke
132_0630 ha a ne a re
132_0631 mohala eo o letsang ka
132_0633 axiomatic set theory
132_0634 wa ntsubisa seneifi ke a
132_0635 na e be eo ke
132_0636 ha di tshehe tswe ho
132_0638 sa methabolisemo ke ho ja
132_0639 a ka be a mo
132_0640 ha ke ne ke o
132_0642 la ho ntshuwa ha batshwaruwa
132_0643 ofising ya manejara wa lebatowa
132_0644 le ha e se ka
132_0645 wa rona wa ho keteka
132_0646 wa ngwana ya tswetsweng ka
132_0647 tselekaneng ho se amahanya le
132_0648 ke eo a se a
132_0649 ya phetolo ya lefutso e
132_0650 e ne e sa nowe
132_0651 thelevisheneng ke a ditshwantshiso o
132_0652 le tjhebelopele cjs e tlamahantsweng
132_0653 le ho kgutla sekolong o
132_0655 kgaitsedi le motjhana ba buileng
132_0656 wa ka o ka ikela
132_0657 civil rights movement
132_0658 le seboka sa phediso ya
132_0659 di hadikela ho di ja
132_0660 ha ke na ho o
132_0662 polao peto le ho otlwa
132_0663 e na le kgoka hano
132_0664 wa modise o a tella
132_0665 ne a sa tswafe ho
132_0666 tlhahisong ya moqo qo o
132_0667 swahlamana ho nkuweng pusong ya
132_0668 sepetlele le kantle ho sepetlele
132_0670 sa bollang a a qhaleha
132_0671 wa sethunya se kgabolang o
132_0674 sekemeng re ke ke ra
132_0677 bafe ba ka ha re
132_0678 se a siuwe ke makgaola
132_0680 hasan ali shah
132_0682 database management systems
132_0683 security assistance force
132_0684 a a nkellang hloohong e
132_0685 international monetary fund
132_0687 sehlopha sa bokone nguni le
132_0688 d e f le g
132_0690 ya ho hlwela le e
132_0692 ha kemohlolohadi a ke ke
132_0693 a ba a kgothotswa ke
132_0694 o ka diha nnyeonyeo o
132_0695 wa molahlehi o ne a
132_0696 utlwi sisa se hlahiswang ha
132_0697 palo eo a e kolotang
132_0698 ka bobatsi bo boholwanyane ho
132_0699 phepo e tletseng bophelo bo
132_0700 wa ho ya mo nkisa
132_0701 o sitilwe ke ho ba
132_0702 official seed testing station se
132_0703 bo yo ha ho ba
132_0704 dinyamatsane dikomang le diqabang ya
132_0705 old high german
132_0706 wa mmmadiepollo a re balakatha
132_0707 e sa ntumella ha ke
132_0708 e sebeditswe le ho lefuwa
132_0709 e meile ho tsoma ho
132_0710 ka diotli ho lenonyeletso le
132_0711 ha se so ka se
132_0712 di a emelwa o ka
132_0713 ho sa kenyelletswe ho ba
132_0714 sa ho tenyetseha le ho
132_0715 fifa world cup
132_0716 kopano le ha ho le
132_0717 islamic courts union
132_0718 ha ho tletsethabo e sa
132_0719 baphedisuwa ba ka ya sephiring
132_0720 o se o le kgaba
132_0722 la melata le ho se
132_0723 ho hohela babadi ho reka
132_0724 wa general electric bekeng e
132_0725 ha ntate a ka a
132_0726 ha e se ho mo
132_0727 ho ne ho tjhesa ke
132_0728 e le ho ya yunivesithing
132_0729 tholang re se re le
132_0730 a se a le motjhining
132_0731 e tlamehang ho nkuwa ho
132_0732 eo ba e fuwang ke
132_0733 dipolelong ka maetsi a matso
132_0734 ka tlwaelo e sa le
132_0735 german air force
133_0003 ne a ye a sadise
133_0005 tu ka ho panya ha
133_0006 ba di je ba ke
133_0007 ha a sa batlane le
133_0008 ho re o ne a
133_0009 ba tsheletseng ba thontshweng ke
133_0015 bonwang le ho ya ka
133_0017 wa bodumedi gospel o sa
133_0018 established diplomatic relations
133_0024 ho ekets boikgathatso ba ho
133_0038 economic cooperation apec
133_0039 oriental orthodox churches
133_0040 ho ewp e be ba
133_0041 le ditswejane ho le mathisa
133_0045 ha molwantsi a ne a
133_0050 mafosi o be o tshehetse
133_0051 dingaka di be di phethile
133_0052 kotulo eo ba e behetsweng
133_0053 phousetara e shebehe e le
133_0054 di se di kgethilwe di
133_0056 he ha e le mo
133_0057 human development index
133_0058 pope benedict
133_0059 tharo a b le c
133_0061 ao o sitwang ho a
133_0063 ha o a lokela ho
133_0067 pusat statistik provisionally
133_0068 setereka sa maseterata wa pretoria
133_0075 ya tswalehileng ya hotseng abokotswa
133_0077 wa di raha e sa
133_0078 o so ka o fetolelwa
133_0079 north atlantic ocean
133_0082 final resting place
133_0083 ba ke re o nkgumamele
133_0085 faatshe ba le mokatong o
133_0086 current account deficit
133_0088 diteboho ho metswalle le bomphato
133_0089 tsepamisa maikutlo haholo mopeletong le
133_0095 ba dikgotswana ba se ba
133_0099 matjhabeng e ye e be
133_0100 tsejweng ka kgalaseng eo motaung
133_0101 e theohang panama o inyanyaditse
133_0105 ha e le ka sekotwana
133_0107 lkhansele ya aforikaborwa ya diporofeshene
133_0108 peo eo a e jetseng
133_0110 ha e le kajeno lena
133_0113 soviet socialist republic
133_0114 e le wa dijareteng difemengkwana
133_0123 dumellang baabi ba batjha ba
133_0124 ne ke se na boikgethelo
133_0125 ne a felehetswa ho ya
133_0126 mmadimpho siko ke re ho
133_0131 zermelo fraenkel set
133_0132 ya boiphediso eo ho ka
133_0136 ba e tjhaelwe monwang ke
133_0139 o ne a se jala
133_0141 ba marena a engelane ditsebengho
133_0144 modern operating systems
133_0145 ya ho ya ho e
133_0147 ne e na le ditempe
133_0148 e bapetsweng ke moporesidente wa
133_0149 ya ka sehloohong wa phethahatso
133_0152 la nkenya ditabeng bana ba
133_0154 mmakarabelo o ne a tobane
133_0157 ha esale ke tswalwa ke
133_0159 le dibohodi di kgothaletswa ho
133_0163 ba tshwasehe kutlwisisong e mopatisane
133_0167 ba rutwe le ho rupelwa
133_0168 khamphaneng ya marematlou holdings ba
133_0169 a se ke a ho
133_0171 early middle ages
133_0174 d ho ikopanya le difedereishene
133_0176 ku tlwisiso e kgabane ya
133_0183 ke ha ba nwabeleditse ba
133_0189 na le boikarabelo ba ho
133_0190 states presidential candidates
133_0195 ba se ke ba di
133_0196 lofe a ka hlolehang ho
133_0199 hard disk drives
133_0200 le leamanyi o be o
133_0202 e le wa semanyamanyane o
133_0203 ho se ho le tjena
133_0204 union member states
133_0207 ba le utswe ba le
133_0211 seo ke lekang ho se
133_0213 le lekgetho le o phumaneho
133_0214 dikgamelwana manamane a bokollela bomma
133_0215 lebellwa ka ha e ne
133_0218 tjhefu dijong le ha ho
133_0219 ba a ruteha le ka
133_0220 ikemisetse ho reupella le ho
133_0222 baromuwa ba ncop ba ka
133_0225 grammy award winners
133_0234 bukeng ya ac jordan e
133_0236 eo ka ho tshelwa ka
133_0237 la peete le ne le
133_0239 efeng ke ha baqolotsi ba
133_0242 o re ke dikwata dibusenga
133_0243 married couples living
133_0244 ho fokollwa ke boitswaro ho
133_0247 butswe le ho butswa ke
133_0248 hlokomedisa ka bobe le bokgopo
133_0251 internal combustion engines
133_0252 menahano ya ka ya farasa
133_0253 national science foundation
133_0256 ba le nate boltong e
133_0261 human rights activists
133_0263 barata ho nkeletsa ho phahamisetsa
133_0274 sa bosuwehlooho ke se tjhesang
133_0275 a le holena la meutlwa
133_0276 ba leloko le metswalle ho
133_0278 tsabosetjhaba le ysa profense di
133_0279 e kalo ka r e
133_0280 valence bond theory
133_0282 poello ha o beeleditse ho
133_0283 lebososelo le monaleo a tummeng
133_0285 di e ja e le
133_0287 o hanana le ho re
133_0288 hlanya ho ne ho batleha
133_0290 ho ba bahlopholli ba peo
133_0292 e se be eo mmate
133_0293 la ho potlaka ho ka
133_0294 le ha e le se
133_0295 ke bosotho nthwese kola sa
133_0296 le o sa kgeseng e
133_0297 e ne e ka ba
133_0298 e se kgeme le pehelo
133_0299 ne e fifaditswe ke mobu
133_0301 se bo ikakgetse ka setotswana
133_0304 castel sant angelo
133_0305 a robedi kamora polotso ho
133_0306 beleha le ho adoptha ho
133_0309 di tshwauwe pampiring eo di
133_0312 ba matriki di se di
133_0314 ho ba moruti wa kereke
133_0315 qolla leakaretsi o be o
133_0317 ya ho ba le dikimi
133_0318 qotsitswe le ho lokiswa ho
133_0319 se qaqolohane ha se a
133_0320 ye a re o ka
133_0321 la ka ho ipapisitswe le
133_0322 elected prime minister
133_0324 medieval islamic world
133_0325 ho nahana le ho amohela
133_0330 yane ya mahadi eo e
133_0331 e tswang ho nac ho
133_0334 sa kgotsofalang la marenana le
133_0336 le momahano le ho bona
133_0337 a shwa ke a ikepela
133_0339 le hlahe ho o fa
133_0341 ba pitsa e bele o
133_0343 ya phano e behuweng e
133_0344 le yena o ne a
133_0345 ha o le mokana o
133_0348 chinese new year
133_0350 tikolo ya karolomoruo eo e
133_0352 re kopantse se fella hona
133_0354 ba hatellwe ka ho tingwa
133_0355 ya mosuwehlooho ho ya utlwahantle
133_0357 e sa le a nyalwa
133_0358 american film actors
133_0360 wa emalahleni mof malatjie o
133_0365 jwalojwalo le ha ho le
133_0366 e nngweentlee mo susumeleditse ho
133_0367 ka tenwa ke ha di
133_0368 le bojuta le bokreste re
133_0369 le mekgatlong ya baserbetsi ho
133_0370 bapiswe le tshupamolato eo ho
133_0372 different ethnic groups
133_0378 lero la morara le monyang
133_0385 di ne di sa rerwa
133_0386 a ho tshwaetsa ho phatlalletseng
133_0387 ba ath party
133_0390 o tehele mohlalanyana o mosesane
133_0393 world health organization
133_0394 green coffee beans
133_0400 e monyane bashemane le banana
133_0402 lekotsi e kieng ya etshahala
133_0403 world s largest
133_0406 wakgahlwa ke lefiso la metsaneng
133_0408 mmankepe bo totiswa ke ho
133_0409 e le homeritshana e meputswa
133_0411 mosotho o ye a re
133_0413 ha o ka kgethelwa ho
133_0417 e qadikaneng ya ho kgaketsa
133_0418 difounu le difekse le ho
133_0422 ebe ha o dumellane le
133_0423 ba ka ke ne ke
133_0433 re lehola ha le jalwe
133_0436 ya basotho ho ne ho
133_0440 studies and journalism ekasitana le
133_0442 ya nyewe se sa thuswe
133_0446 pro football hall
133_0447 le maqhubu a radieishene sepakapakeng
133_0448 later middle ages
133_0449 ba itlhophereng ba na le
133_0453 ka sontaha a leshwe ka
133_0455 le ha le ne le
133_0459 yuniti ya bokenadipakeng ya tonakgolo
133_0461 verifiable source proving
133_0462 parliamentary representative democratic
133_0463 mathomo e ne e se
133_0473 di ya ka therifi ho
133_0474 o atlehile ho kgina tshwaetso
133_0478 ho tlalellana di a pakellana
133_0480 ke nyatsana le ho ikwahlahela
133_0483 ho hlometswe ho tlatlaptjwa ha
133_0487 ya se ke ya mo
133_0489 ho demokrasi e amohelang ho
133_0490 ha sheri a dumetse ho
133_0493 bulele ha ho se ya
133_0495 le ya mookodi ka hohle
133_0497 na ho ba le boitelo
133_0499 ya thutapuo ka bokgoni bo
133_0500 united states government
133_0503 ho division liquor products stellenbosch
133_0507 e atiswa ke ho se
133_0510 holy roman empire
133_0513 bo omeletseng bo meqilweng ka
133_0518 ha ke re ha ho
133_0519 o neha motsotso wa ho
133_0520 ho ka boelang ha kenyeletswa
133_0522 natural number n
133_0527 best original screenplay
133_0536 ho se tshwanelwe ke ho
133_0545 verify credibility dater
133_0547 rejisetara le sephetho di loketse
133_0548 e tshelwang matamong a ho
133_0550 otlile a ba a mo
133_0551 dubious date march
133_0552 ke ha a rohakwa ka
133_0556 e ka ha ho a
133_0564 se a hatile molelema o
133_0565 ha o ja ho ja
133_0567 a mangata tlolo ha ho
133_0568 ho se tlhokahalo ya ho
133_0569 ho roka ke ho bokotsa
133_0570 le na le vitamin d
133_0571 o a sebesisitseng a se
133_0572 kemangau a e hlepholaka ka
133_0573 ha ke re o ne
133_0575 blood pressure hypertension le asthma
133_0576 a ithorise ka lefeela la
133_0577 ahwa wa morapedi ha ke
133_0578 ya thothokiso le ya sengolwa
133_0579 o e romelang ha se
133_0580 e ne e le makgowa
133_0581 game boy advance
133_0582 p na ke lefa ka
133_0583 a bonahala ha ho le
133_0584 a ke keng a ba
133_0585 le ya mo sitisang e
133_0586 kgodise ha di tshehe tswe
133_0587 o a ntjodietsa ha ke
133_0588 se di sutelwa ka mokotleng
133_0589 american voice actors
133_0590 ke ne ke etetse ha
133_0591 ho se ho se na
133_0592 b le ho ya c
133_0594 a be a mo kgothaletse
133_0595 ba ne ba le bafubedi
133_0596 ha a mo kgalemella mekgwanyana
133_0597 be le tsamaisano le bili
133_0598 ke ne ke re ho
133_0599 be di mela manaka bo
133_0600 di ka be di thibetswe
133_0601 ho ka ama sabsidi ya
133_0602 ho balehaempa ba mo lelekisa
133_0603 memorial park cemetery
133_0604 botoro le tjhisi mabejana difeme
133_0605 e ne e le bosiu
133_0606 a ne a le siyo
133_0607 a lekanyetsang ka ho ngolla
133_0608 be borapolasi ba kamoso o
133_0610 re na ke a mo
133_0611 le lefubedu t w d
133_0612 la botahwa le se le
133_0613 a fetang le a sefefo
133_0615 ke ha ho qalwa ka
133_0616 o re ntaramane ee ya
133_0617 ba nyetseng ke mampetje ba
133_0618 ra o tlohela o sa
133_0619 wa tsoseletso ya boitshwaro o
133_0620 ka botenya ho ya ka
133_0621 ya ka le ba bohading
133_0622 ya cashier e be o
133_0623 re ha o sa mo
133_0624 e le sephoko a kgelekenya
133_0625 be wa ba wa mo
133_0626 le ho se hlomphehe ha
133_0627 roman catholic priest
133_0628 failed verification date
133_0629 ditoloko le ho theheng ditataiso
133_0630 ba ho elellwa makgabane le
133_0631 la nteka la nkenya ditabeng
133_0633 t a ba a mo
133_0634 ka se tshwarwe ka ho
133_0635 canadian pacific railway
133_0636 balehang ho bebofaletsa motshwai ho
133_0637 ke ne ke sa ruteha
133_0641 alexander graham bell
133_0642 e sa otlolohang polokehong ya
133_0643 v v mmapelepele e ne
133_0644 theotsweng ke moadimi le ho
133_0645 ke ha a le haufiufi
133_0646 ruuwa le ho laolwa ka
134_0001 ho ba ka ncop ke
134_0002 nnetee nee yeere ha ke
134_0004 sekgutlo e ne e se
134_0005 se o lokile ba crime
134_0006 me e be lengolong le
134_0008 a se ke a ikutlwusisa
134_0013 di jehang ba kgonang ho
134_0015 sulafalletswe le ho ja ho
134_0021 seroki sa morenengha ho etellwa
134_0023 foreign language film
134_0024 polymerase chain reaction
134_0026 phefumoloho ho kgohlola le ho
134_0027 ba kopanyang ba kopangwa ke
134_0028 disebediswa le ho fokotsa bofuma
134_0029 sa phetla le ho phetla
134_0030 ka therisano le baahlodi le
134_0032 ho mo lwantsha ha ho
134_0033 ho mofani ke mohato wa
134_0035 ya dikgetla ho kutwa ha
134_0036 ya ho ba le ditshwaetso
134_0037 persal e fumaneha setlankaneng sa
134_0039 butse mokete ka pina ya
134_0040 ba o se ke wa
134_0044 ka moamohedi wa setswakantle ho
134_0046 ho hira ikopanyeng le moeletsi
134_0048 ne a utswitse diphahlo lebenkeleng
134_0049 oo e ho ba le
134_0051 ho raleng le ho phethiseng
134_0053 ke lesira le le pudutswana
134_0055 ke tlala morolo ha e
134_0056 career home run
134_0057 be le tshwano ha ho
134_0059 kgafetsa le kgafetsa le diseneke
134_0061 se ke wa ya le
134_0062 ho hiruwa ha ka potefoliong
134_0065 american film producers
134_0067 ba tshedisehe o na le
134_0068 se o le ntata nnyeo
134_0072 se o ngodisitse ha ho
134_0075 o se o badile palekgutshwe
134_0076 ho fepa le ho nwesa
134_0081 tshwanang le mekitlane ya thepa
134_0082 dipuisanong e ne e le
134_0085 ba lefitori ha se bonwe
134_0088 in die land wat die
134_0089 mmamenotwana towe o se ke
134_0090 e le tshesane sa theka
134_0091 ho south african revenue service
134_0094 lehlwa ha le qhibidiha dithabeng
134_0098 di a mengwa ho thonya
134_0099 ke hora ya bohlano thapama
134_0102 ya ho tiisetsa ditshaeno le
134_0103 diselefounu di ka utsuwa ho
134_0104 lengolo la semmuso mohlahlobi o
134_0106 dilomo meru e kopaneng diphulana
134_0109 ho itshetleheng ho sa hlokeheng
134_0111 re ba hlalefile senase pakwa
134_0112 a borikgwe bo botsho kausu
134_0114 a sebetsa ka boyena ho
134_0116 ikgethileng dihlekehleke madiboho marokgo le
134_0117 a le lebeletse le ne
134_0118 notable examples include
134_0121 mo qhoqhang ho intlafatsa ho
134_0122 bo hlollang ha fihlamotsotso wa
134_0123 e kenngwang dikotikoting e pakwang
134_0124 ka ho toba akhaonteng ya
134_0127 ya be e re elellisitswe
134_0128 mareo le mererong ya diprojekte
134_0130 lebile botsitsong le katlehong kgatelopele
134_0131 le ne le se le
134_0132 ne re ka ra bitsetsa
134_0133 di be le tatso e
134_0135 o ne a lapile ho
134_0137 na o ne o a
134_0139 h tswala tjheleteng ya tsetetsweng
134_0141 ya kgohlong ka ha e
134_0142 serobe phiri e se e
134_0144 san diego chargers
134_0149 lora a haola meruemetala ya
134_0154 ho se ho fanwe ka
134_0155 dumelle le be le ele
134_0156 late bronze age
134_0157 ha di silafatswe ke ditshintshi
134_0158 dikgohola difefo dipula le marole
134_0160 ya kutlo hcps boenjinere ba
134_0161 ha ba se ba tshwanelaha
134_0162 ho felehetswa ke memorandamo le
134_0163 prince edward island
134_0164 michigan state university
134_0165 strategic air command
134_0167 a le khwaereng e ka
134_0169 free trade agreement
134_0170 e sa kgahliseng ya dingangisano
134_0172 world trade center
134_0175 phoso e tsamaya le mohatisi
134_0176 di ne di ponngwe ka
134_0179 persian gulf war
134_0180 ho na le ho kgaokg
134_0181 natural resources include
134_0182 maqephe a fuperweng ke patanta
134_0183 bonahetse tumellanong ya harare eo
134_0184 absa fnb nedbank a beyang
134_0185 fapaneng le ho ya ka
134_0187 ke ho mathakaka majwaleng o
134_0188 ho ya ka diphapang na
134_0190 le ho re o bope
134_0193 e ne e le disontaha
134_0195 kgeswa le ho bitswa mabitsobitso
134_0197 low earth orbit
134_0198 le ho ka sebetseha ha
134_0199 na re ne re itshwenyetsang
134_0202 le nna ke le tjena
134_0203 behela ba mmokanetseng a kgutlisa
134_0204 le diyalemoyeng re hlokomediswa ka
134_0208 o re re qhelele moketjana
134_0209 tlalehong eo ha re a
134_0211 quantum field theories
134_0212 re itlamme ka boithaopi ho
134_0213 a se a neheletsa leqosa
134_0214 eo ke ikemiseditseng ho shwa
134_0216 diindasteri demokrasi bokomonisi le bongangele
134_0219 ka ba ke re o
134_0220 ho paka ho re se
134_0221 buddhism
134_0223 bitswang long walk to freedom
134_0224 multi purpose community centres ke
134_0225 tshohang e tshwasitswe marabeng a
134_0227 ho a le b ha
134_0228 eo o sa tshwanelang ho
134_0230 tj hata ya tshe beletso
134_0231 o se a shwele dikweta
134_0233 e ke e mo phekole
134_0239 ya sethethefatsi tjhefu ya khemikhale
134_0240 o phuthile le mehaswana ya
134_0242 wa semetletsa wa ho le
134_0243 ho sa na le ho
134_0244 mathajwalo a kotlobane a bonela
134_0245 harvard university alumni
134_0246 bohla o ne a bohla
134_0248 united states secretary
134_0253 matswadisa hlobolang mese eo le
134_0258 president abraham lincoln
134_0260 ya e ekeditsweng ke s
134_0261 di romelwe ho ya tjhaelwa
134_0264 le mtshwao a tshupo a
134_0266 eo o e hlokang e
134_0267 mafura peterole e nyoloha ka
134_0268 bophelo bo botle le polokeho
134_0270 itlama ho se behe saps
134_0272 felehetsa ho kgutleha hlakoreng la
134_0273 ba ka hodisang dipoelo ka
134_0274 ho ne ho ithabiswa ka
134_0276 cricket world cup
134_0277 tlhapa e ne e sa
134_0279 e re nengneng a eme
134_0281 ba bangata kamoo ho ka
134_0282 ke ke ya leshwa ke
134_0284 e lethwethwe o elellwise mokomishenara
134_0286 le ka madungwadungwana ho ya
134_0287 iswe ho ba baholo le
134_0288 e sa le e qheletswe
134_0290 wa mautse ha dubeha ha
134_0291 eo ho buuwang ka yena
134_0293 hadiindaseteri ho arolwa ha diindaseteri
134_0296 re ye re sitele jehova
134_0298 sa ho vouta sedikeng sa
134_0299 tadimile ka leihlola kaine ho
134_0300 re e se e le
134_0301 na ie seoa se unang
134_0304 a bala le ho boha
134_0305 be le ho fapoha dipallong
134_0306 ha a na anyalwe a
134_0308 ya babokelli ba dikoloto ba
134_0311 e le o rarahaneng ho
134_0312 bodileng matshwele a sollang a
134_0313 a di utlwisisang le ho
134_0314 le kutlwisisano dihlotshwaneng ke se
134_0317 council for natural scientific professions
134_0322 ne a se a utlwetse
134_0325 ha a sa e fuwe
134_0326 na ba se ba thusitswe
134_0327 cite journal title
134_0329 re re re qhwaolla kobo
134_0330 southern african development
134_0331 ya b le ya c
134_0333 obitjhuari ka ha le ne
134_0334 le ho se utlwane bara
134_0335 hatabatsabatho ke ha a le
134_0337 ho tiisetswa e le ya
134_0345 ho re ho se be
134_0348 a butswelana ka tholwana le
134_0349 ke sa na boikgethelo ha
134_0350 ke batlatlapi ba ikotlang sefuba
134_0352 ba reke dijole ho patalla
134_0355 million years ago
134_0356 le manollong ho ikamahantswe le
134_0357 tlhwekiso ya matlwana ke le
134_0358 naval air station
134_0359 re re ye wits ka
134_0360 ho registrar of animal improvement
134_0361 ka ke sa tsilatsile le
134_0362 ho ne ho se ho
134_0365 di fumanehe khomputeng ikopanye le
134_0369 le ho phomosetsa bamemuwa ba
134_0370 makuleke kruger national park dinaheng
134_0372 ka letlotlo le siilweng ke
134_0374 na le ho kgaokg aoha
134_0375 kgolong ya ka le tshiung
134_0376 motsotswana ha e le difelekwane
134_0377 west african states
134_0378 uke ichi ni san ji
134_0379 a sa ka a mo
134_0380 ha e le ee dihora
134_0382 le ho akofisa bonamo le
134_0384 mokuru o se o sibile
134_0388 ha ba hlomphe mosuwe ya
134_0389 a tsweretse sa tweba e
134_0390 ke ne kekopa matlaa ho
134_0392 on financial awards pfa dinnete
134_0393 ke ke ha o tswela
134_0395 ha ba ka ba a
134_0398 ho se qose ha se
134_0399 ha ho ne ho sa
134_0400 oporeishene ho kokobetsa mahlaba le
134_0403 a le ka mokgorong a
134_0404 ke ke a phonyoha ke
134_0405 tekanyetso e tswellang ke lewa
134_0406 ha ho na pilisi enjekeshene
134_0407 arotswe ka mekgahlelo e meraro
134_0408 palestine liberation organization
134_0409 ke ke ba toboketswa ho
134_0410 united states capitol
134_0411 a re o se a
134_0413 di batlisiswe le ho salwa
134_0414 poraevete k h r ba
134_0415 ya bcm le ho hlaisa
134_0416 services development plan wsdp e
134_0417 mo tadime le ho mo
134_0419 ka ho re tselatshweu matebele
134_0420 le ho se ikamahanye le
134_0421 dikoloing ho ya ka ho
134_0422 ho mo qosa le ho
134_0423 thonya bonkgetheng ba loketseng ho
134_0425 ho nehelawe ka tataiso ho
134_0427 ba ne ba ye ba
134_0429 ho ka tsoselletsa mofuthu wa
134_0431 paris peace conference
134_0432 mo sehollake a motsholele maqa
134_0433 dipotongwane ho re tshiu di
134_0434 ha ke na le tletlebo
134_0435 ba ka a ka tshababeatrice
134_0436 dumedise ka ho re dumelang
134_0437 le e atlehileng ho fihlellwa
134_0438 articles containing video
134_0439 kotopi le sebuweng ke ya
134_0440 setshwantsho se se hlalosang neha
134_0441 ne a se a thotse
134_0442 batshosi ba tsohellang masimong esale
134_0443 o ne a tshepetse ho
134_0444 metsofe le ba holofetseng ba
134_0445 sefifi sa phoofolo e shweleng
134_0446 e qotsitswe le ho lokisetswa
134_0448 cola le ditjhokolete di na
134_0449 o bue o ke o
134_0451 lehlokwana le finnweng lefito o
134_0452 motsokapere o ne a na
134_0453 se ba e butswela ba
134_0454 ho ruruha ha manonyeletso di
134_0455 european economic area
134_0456 disampole di nehwa ba osts
134_0457 oke ke wa hlakoha o
134_0458 atomic energy agency
134_0459 a se a sa tlwaela
134_0460 major league record
134_0461 tshositse ka ho o bolaya
134_0462 mafotholeng e ne e le
134_0463 re le ne le le
134_0464 e thehilweng ho nyehelo ho
134_0466 ke ne ke le e
134_0467 na ha e le mo
134_0468 o robetse a opelwa ke
134_0469 ka boholonyana o ne a
134_0470 bo se bo le ho
134_0471 le hodiswa le ke dillo
134_0472 o tlohelle ho tjha ntshi
134_0473 ka o ja o le
134_0474 a nbotsa ho re na
134_0475 ne ke re o mo
134_0476 mahodi a patile maeba ya
134_0477 cape breton island
134_0479 ya ho finyeletsa ditshebeletso bathong
134_0481 e bapalwang ke motshireletsi wa
134_0482 ba thontsweng ke sacnasp professional
134_0483 minister margaret thatcher
134_0485 mashaeng empaha ho a ka
134_0486 bo bong le bo bong
134_0487 engwe ho na le ho
134_0488 a so ka a bewa
134_0489 sa tlhatlhobo le f ho
134_0490 e siuwang poleseteishene ke ya
134_0491 le ke na le toro
134_0492 ha ho tluwa mangolong a
134_0493 phethisa tshepiso ya ka ke
134_0494 kansas city chiefs
134_0495 di fihlile mohwang e sa
134_0498 states army air
134_0499 o sa ka wa re
134_0501 e le ho di abela
134_0503 di ne di se na
134_0504 le sekgobo ho qhellwa ka
134_0506 ya ho hira ikopanyeng le
134_0507 ya mmampodi kgwaolla ditswakotleng jm
134_0508 south west england
134_0509 helang le ho hlophisetsa pan
134_0511 e tswalwang ke metsetso e
134_0513 maobane e ne e le
134_0515 le bothong o ba le
134_0517 le vii ho diswa ho
134_0518 ya eommae e be e
134_0519 e le ba moradi wa
134_0522 ha o ke ke wa
134_0523 le halofo ho isaho a
134_0524 bronze star medal
134_0526 le ojwa le sa le
134_0527 roman catholic monarchs
134_0528 ba polasi ba be le
134_0530 fact date december
134_0531 toustu bisekiti le raske dinong
134_0532 ditaba maikemisetso maemo le sebopeho
134_0533 ya ho ingodisetsa sephethephethe e
134_0534 ba dipatlisisomme a mo eletse
134_0535 qetella e le diqhwala ka
134_0536 eo a e sietseng rehauhetswe
134_0537 sehlooho se sekasekwa le ho
134_0539 belehwa ha e ba ntshe
134_0540 ho ya moketeng e ne
134_0543 dikgoka le ho kwena ha
134_0544 kasefuthu le ka lekgetlo le
134_0546 ba a tsieleha ha ba
134_0549 ya kekeletso ya ho ba
134_0551 matsapa a ho ntshampa eo
134_0552 prime number theorem
134_0555 ke ya html le ha
134_0557 a botona marong a ntshuwang
134_0558 monyenyaneyena o ne a enale
134_0559 mebaraka e bulehileng kgwebisano ka
134_0563 ho na le qhoku e
134_0565 o se ke wa senya
134_0566 qoleng ho ya motsong wa
134_0567 canadian prime minister
134_0568 ho ya ka ho hahuwa
134_0569 ba ka fihlellang ho ka
134_0572 makopanyi maemedi le mahlalosi ho
134_0573 ho hlwekise khotone le h
134_0575 hlahlamela dithaba ha makgomo a
134_0576 ho itsebahatsa le ho utlwahatsa
134_0577 ho ya hlwekisa le ha
134_0578 leruo le utswitsweng jj le
134_0579 ke ya di heleng ho
134_0581 a sa kgotsofatse tleleime ya
134_0583 ya phahello e lebelletswe ho
134_0584 nyetsweng di ne di siile
134_0585 a rabaraba v o ipotsaka
134_0591 re ho etsahalang hantlentle na
134_0592 mofuthu ha o ne o
134_0594 o thusitseng o ne a
134_0595 e shweleng e ne e
134_0596 aithunya ho ne ho sa
134_0597 a na le moetsi le
134_0598 a e ngotseng le ho
134_0600 phethelwe ha ho thetheswa bohadi
134_0603 battery park city
134_0604 hamorao ho ye ho etsahale
134_0605 ke hle ke o jwetse
134_0606 ke futswela bohobe ka menyepetsi
134_0607 ke enwa o se a
134_0609 russian orthodox church
134_0610 o ne o theosa eo
134_0612 ke ne ke o kala
134_0613 gravitational potential energy
134_0614 ne a na le bahlankana
134_0615 le ho se latelwe ha
134_0619 party united states
134_0620 eo nalane le jokorafi di
134_0621 late twentieth centuryodowska curie
134_0622 geologic time scale
134_0623 ha a ka ke a
134_0626 operation enduring freedom
134_0627 mmathulare hammoho le qaka eo
134_0628 tlalang le ha ho le
134_0629 sa kgotsofatseng ya cjs ha
134_0630 a ho enta le ho
134_0631 states district court
134_0632 united states house
134_0637 le ha ho se ho
134_0638 ke se sengangele a ka
134_0639 ho ba le kabelo e
134_0640 box office success
134_0641 ho borithane ho ba ka
134_0642 ke iphetola setshehisa sa rammolotsi
134_0643 re o fiela phaposi ya
134_0644 le ke le nthuse ho
134_0646 hla a ala leleme phate
134_0648 moetsi ketso moetsuwa katoloso jj
134_0650 ka ho ngollwa ka ha
134_0653 ha o re re bitsetse
134_0654 a thupelo diphetolelong le tlhaolong
134_0657 bakae ba amehang tsamaisong ya
134_0658 president franklin
134_0659 o sa qoqweng ke dipapiso
134_0660 e sa nepahalang e sefuwe
134_0661 o se a mo kopetswe
134_0662 re tsho ho ne ho
134_0663 ha di sa le setlwaeding
134_0664 la mammila le okametsweng ke
134_0665 o ithetsa ka tsiemokopu e
134_0667 na o sa tshwanelaha na
134_0668 le sa le letjha ho
134_0671 ka ha ho bontshitswe tekodisiksong
134_0672 a ka wa phethisa ka
134_0673 greenhouse gas emissions
134_0674 yom kippur war
134_0676 states coast guard
134_0678 clarify date january
134_0680 ke ikutlwa ke imolohile moyeng
134_0681 kgotsa mmamoleko ha se dingwetsi
134_0683 di hlwekile di sa tshwehle
134_0684 ka taelo ya tshireletso ya
134_0686 ie seoa se unang ho
134_0687 ne ho e na le
134_0689 dihlekehleke madiboho marokgo le metjhophoro
134_0692 letlaila le ho tlaila moreneng
134_0693 marapo ka ho ya ka
134_0694 le se ke la bolellwa
134_0695 a ne a hanela monyaduwa
134_0696 ya boingodiso e ipitsang ka
134_0697 ho tshwana e re nke
134_0699 ke ne ke safufulelwa ho
134_0700 mabothobotho a bonojana bo tsotwang
134_0701 ho santaco re ke ke
134_0702 ekasita le ho nyediswa ke
134_0703 ka hlahlobong o a thalatsa
134_0704 northern mariana islands
134_0706 judase ha a ne a
134_0708 saint john river
134_0709 a amohetseng a re thusitse
134_0710 ditsela le ditlwaelo ho ya
134_0711 mmatoko o ne a se
134_0712 ya ba lai lai thu
134_0713 traditional chinese medicine
134_0715 baithaopi le ba sebeletswang ke
134_0716 ha e le a ditsietsi
134_0717 american film directors
134_0718 ya ka e a thulama
134_0719 se ke la ntlhobaetsa ke
134_0720 ba ne ba le pelotelele
134_0722 states national film
134_0723 be ho sa ba le
134_0725 re iqeke emoholo esere ra
134_0726 palo eo o e kopang
134_0728 ba phetelana ditshomo ho itlosa
134_0729 ya boshodu ho tjhwatlwa ha
134_0730 european economic community
134_0731 ba ba tshwasehe kutlwisisong e
134_0732 e otlolohileng le ha e
134_0733 e le sephoko a kgelekenya
134_0734 be wa ba wa mo
134_0735 le ho se hlomphehe ha
134_0736 roman catholic priest
135_0001 be o lokollohile ho di
135_0002 la melata le ho se
135_0003 ho hohela babadi ho reka
135_0005 ha ntate a ka a
135_0006 ha e se ho mo
135_0007 ho ne ho tjhesa ke
135_0009 tholang re se re le
135_0010 a se a le motjhining
135_0011 e tlamehang ho nkuwa ho
135_0012 eo ba e fuwang ke
135_0013 dipolelong ka maetsi a matso
135_0014 ka tlwaelo e sa le
135_0015 german air force
135_0016 o ne a nkile moriri
135_0017 o a iphapanya o re
135_0018 engineering task force
135_0019 le tswello di ka fuputswa
135_0020 la provinse dibankeng le ho
135_0022 po ka dimpa a be
135_0024 ho fapafapana ha ho kgethwa
135_0025 setho e tiisang boitshetleho ba
135_0026 ha ho kenwe selekaneng le
135_0027 le lebiswa ho moadvokate j
135_0028 ke ho tsofala le ho
135_0029 operation desert storm
135_0030 united states congress
135_0032 hong kong island
135_0034 hillbrow e ne e le
135_0035 itshwere thekeng a re ho
135_0036 le d ho tshireletsa leqheku
135_0037 ho website ya lefapa la
135_0038 ya swine flu ke ho
135_0040 ke ne ke sa hlajwe
135_0042 kgohletse a le dibebe molomong
135_0044 ya ka ha e le
135_0048 wee ee a hweletsa a
135_0049 ho nyalanngwa ha di rutwa
135_0051 wa parole o ne o
135_0052 ya c ebang o sa
135_0055 san ji go roc sichi
135_0056 e amohetswe ho sasa le
135_0058 phutholohile ha e ya rarahana
135_0059 manganga a tenang ho kgaruma
135_0061 ke ho ananela le ho
135_0062 na o ka ba wa
135_0063 ne a bokolla seboko se
135_0064 na ha ho le tjee
135_0065 fact date november
135_0066 ya ahloletsweng tjhankana ka ho
135_0067 ya seemo se selelele ya
135_0068 ha se le ka felang
135_0069 le ho itokisa ho re
135_0070 ke re o kgopo le
135_0071 oo ha re a phekgohe
135_0072 towe o mo phetha ka
135_0073 ha o sa ithuti o
135_0074 ba a mo kgalemela ka
135_0079 ratahore re tsamayeng re ye
135_0081 ho ne ho phelwa ka
135_0083 o ka kubellang ho se
135_0084 o ne o se na
135_0086 batlileng o tshwana le wa
135_0087 le nebank ho ke ke
135_0088 a ke ke a ntaola
135_0090 ka ha le ne le
135_0092 ne a se a ferekane
135_0093 ano ka ha a ne
135_0097 modimo ha ke sa ka
135_0098 e nenge se e emetse
135_0100 ya bosupa e se e
135_0101 ya kapele etla thabelwa ka
135_0102 haellang ya ma ntswe a
135_0103 sepolotiki le ha ho ne
135_0104 o na le ponelopele o
135_0107 ya b ya foromo ya
135_0108 o busang le ho ameha
135_0109 ha ba sa re tshepa
135_0110 ka ho phoqa oo be
135_0111 eo a ka be a
135_0114 monene ha re ne re
135_0117 le ho ba le boitemohelo
135_0118 mo tlwaetse ke ne ke
135_0121 a se a re phoqile
135_0123 le ha a se a
135_0124 thutong le ha ho le
135_0125 ho ya ka koporasi e
135_0129 le ntshwarele e ne e
135_0130 science fiction novel
135_0132 data link layer
135_0135 army occupied cypriot
135_0139 a ke ke a e
135_0140 ya dutseng ka botlolo e
135_0143 kgutshwanyane ha o ne o
135_0145 rapid economic growth
135_0146 jo ha qwading e le
135_0148 ba le bothata ha a
135_0150 eo a ka mo tsohela
135_0151 ho tshwaela e ananelwa mekgweng
135_0152 o ne a lekile ho
135_0154 ha morena a ne a
135_0155 mmatshokolo e ne e le
135_0156 di se di etsahetse ha
135_0157 yane e ka marantha a
135_0161 eo e se e le
135_0162 ka ha ba ka ba
135_0163 ke ka baka lang o
135_0165 ba a mo tenehela ba
135_0166 sister ruth e ne e
135_0167 liberal arts college
135_0168 eo a tlwaetseng ho e
135_0170 na o se o lebetse
135_0174 wa tekolobotjha ya bolekane ba
135_0175 ba ka sireletsang le ho
135_0177 a selehae le ha e
135_0180 ba ne ba phashaketsa ka
135_0181 ya ka setha a fedile
135_0183 ho ba morutisi wa ho
135_0185 ke wa lemoha bodiba ba
135_0186 habedi hararo yaba o a
135_0188 mmathabang ha ke re ke
135_0189 old west norse
135_0190 o mo lakaletsa mahlohonolo a
135_0191 wa bohokanyi le keletso wa
135_0193 e le lekgoba la tahi
135_0195 he ho ne ho se
135_0196 utluwang ke ya hlotsweng le
135_0197 ke mo rolela kgaebane e
135_0198 meqoqo ya phirimana j g
135_0199 morethetho metuta ya diphetapheto le
135_0200 german military personnel
135_0202 ntatae a ka bakela hlomi
135_0203 ya hatiswa e saenwe e
135_0204 ekwa ke lekgomosha le itswelang
135_0205 o lekole phamflete ya adoption
135_0208 letsholong la ho tlabola dilekane
135_0209 pharela le ha ho le
135_0210 e le lekonstabole boriki le
135_0211 e ka rekiswang e ka
135_0213 ho nkeha ha dibakisotabeng ya
135_0214 qabana hampempe le mmamasolomane vv
135_0215 o phehelletse ho nqosa ka
135_0216 e sa le e qaleha
135_0217 lakatsa ho ipiletsa ho bomphato
135_0218 e behuweng ha e le
135_0219 itebetse ho se ya ka
135_0222 e le mohirwa wa broukara
135_0223 hakaakang ha re ne re
135_0224 ho matlafatswa le ho ntshetswa
135_0226 civil rights act
135_0228 sinclair zx spectrum
135_0231 eo ho fanweng ka yona
135_0232 mmamphele ka sekotlo wa sala
135_0233 empa ho na le ho
135_0235 le motletlebi e be le
135_0236 eo a mo hlokomelang setloholo
135_0238 ka mahafing le masapong a
135_0243 ka ha dipotso di nomorilwe
135_0246 di fetisetswa sehlopheng se setjha
135_0247 baneng e re hokahanya le
135_0248 e ne e le monghadi
135_0253 ha mokuru o se o
135_0256 ho sotlwa ka ho utlwiswa
135_0257 ye di se latelane ho
135_0258 malapa ohle di ka tholwa
135_0263 e ne e le mafelo
135_0266 mojabeng le kgaitsedie disebo ba
135_0267 o a hlwephetsa o tjho
135_0269 higher education institutions
135_0271 ho mo busetsa moalong wa
135_0274 african american musicians
135_0276 tshwarwa ka sephiri ka dinako
135_0277 bo ka se fele ha
135_0281 o re ha ho ne
135_0282 ka seipheo sa ho nosetsa
135_0283 dinepe ditshwantsho diselaete mmino modumo
135_0285 se ke la qeyaqeya ho
135_0286 se mara ha se ho
135_0287 a re qaleng ho ba
135_0288 ka ho ya ka borabe
135_0289 le mokotaba ka le ho
135_0290 ho di developer le ho
135_0291 tjhepisi ya stimorol e fumanehang
135_0292 free software movement
135_0293 be le tjantjello ya ho
135_0296 ba ke ba mo rute
135_0301 ha a na tsebo ya
135_0302 menu e phuthollang dropdown ya
135_0304 ho na le fifi sa
135_0305 re be re arohanngwa ke
135_0310 habobebe ka ho tobetsa selefounung
135_0311 ba iphumanang ba le ho
135_0315 la ka ke dudu bukaneng
135_0316 ho ya le ho kgiutla
135_0322 motlalentwa o kgaohane le motsotuwa
135_0323 wa sesotho o phekolang mafunyana
135_0324 finyellwe le ho qhalanngwa ha
135_0326 mofifi le mmakgama le mmatheko
135_0327 hahelwa servcon ke thubelisha homes
135_0328 le ha ho ka ba
135_0333 early christian church
135_0337 o ne o ikopa ho
135_0340 arthur conan doyle
135_0341 lebekere la oli le borotho
135_0342 indian classical music
135_0344 bo tsamaelanang le tjhesehelo e
135_0345 association football clubs
135_0346 b abela ho phethwa ha
135_0347 ho hang kaha e lekotswe
135_0350 di re tsuuu a tsitsinya
135_0353 motswako wa lero la morara
135_0355 emperor sh wa
135_0357 nobel prize winner
135_0361 ha ke na pelaelo ya
135_0362 he a ba a thunya
135_0364 tseo ho fanwang ka tsona
135_0365 ho utlwana le pabala e
135_0366 a e tidinya ha engwa
135_0367 hlwaya le ho fihlela moelelo
135_0368 na ba ha a na
135_0369 e le ho rothisa keledi
135_0370 hlahe ho o fa dikeletso
135_0375 setulo sa bosuwehlooho ke se
135_0378 ka lekeke e ka ba
135_0379 sekepele se behilweng ho ka
135_0380 letheka e ka la mmamodukule
135_0381 a lebisitseng ho thehweng ha
135_0382 europe music awards
135_0385 o a re latola o
135_0388 sekgoba o be o hlahise
135_0390 ka makopanyi masupi le mahokedi
135_0393 ke o rata ke tiile
135_0395 o re ho robala ke
135_0397 chester williams o ne a
135_0398 supreme allied commander
135_0399 madume ho boetapele ba mokga
135_0400 tefello ka ho toba akhaonteng
135_0404 le thelefounung ho di e
135_0405 ne o hirile bahiruwa ba
135_0406 ho kgwehlang e ne e
135_0408 pope pius
135_0410 tobaneng le ho ntshwa ha
135_0413 aterese le nomoro ya mohala
135_0416 ya ka a ka re
135_0417 o fihla ka be ke
135_0418 a le moimana ha a
135_0419 second punic war
135_0420 socialist workers party
135_0424 international astronomical union
135_0425 ha difensetere di tjhwatleha le
135_0428 moeti ya ikemetseng wa ditjhankane
135_0429 le kgothaletso ya boikgwantlello le
135_0431 le tjharola ya mohlankana e
135_0433 le lempetje ha ore o
135_0434 los angeles dodgers
135_0436 american female singers
135_0439 fetotsweng lefutso le v melawaneng
135_0440 o ikgotsofaditse ho ya ka
135_0442 ya sethatho ho iswa ho
135_0444 ho ba hlorisa ke a
135_0446 a be a yo re
135_0448 morunyaneng a ba a kgatholoha
135_0449 second world war
135_0450 lepolesa le tsh wanetse ho
135_0451 cc e ka hlodisana le
135_0452 tjhoba le se le letse
135_0453 oo mokobobo o na le
135_0454 calluses ho di vocal cord
135_0456 ho ya thupelong ya tjhoriso
135_0459 ke dule ke kgwabitlwa ke
135_0460 a e i o u
135_0464 le ka tjheletevv raboditse o
135_0465 bapisa maelana a ho kholomo
135_0466 boemedi ao ho nehelanweng ka
135_0467 he di ne di ye
135_0468 motsotuwa ho se ho se
135_0470 ho re tsekiso ha a
135_0479 e be e phethilwe ka
135_0480 ho ba eo rejistra a
135_0481 no tswafa ho le tshwarisa
135_0485 kgotjwane le sekoto mmo ho
135_0486 o ne o hirile bahiruwa
135_0488 ya authority to apply e
135_0490 metjhini ya othomatiki e sa
135_0491 ke ha mmalerato abokolla ha
135_0492 a kgonneng ho inyalanya le
135_0493 mohlang oo kolobe ha e
135_0496 ho ba tlhokomelong ya ka
135_0498 sa sireletsehang re ntlafaditse temoso
135_0501 old catholic church
135_0502 turkish army occupied
135_0508 graphical user interfaces
135_0509 indus valley civilization
135_0510 ja o le tala ha
135_0511 best foreign language
135_0513 ha ho se ho ho
135_0514 voutu e eketsang voutu eo
135_0515 dikwankwetla bahale ba furallwa kebasadi
135_0517 american civil liberties
135_0521 pejana ho tswa ho nac
135_0522 ho phethahatswa ha phahamiso ya
135_0524 ho ya ka ka kglofalo
135_0525 mohlwekisi wa dikantoro molemi wa
135_0526 se itshwenye le ho itshwenya
135_0527 states marine corps
135_0530 tadimang e le a behang
135_0536 arizona state university
135_0537 o se ke wa itlotsa
135_0538 nobel prize winners
135_0539 ho se ho apolwa ho
135_0542 ba kgonne ho itokolla bafutuheding
135_0543 ka ho re salla le
135_0544 senyesemane le ya afrikanse ha
135_0545 se re a tenehe ho
135_0546 ya ka jariswang sekodi sa
135_0547 le a hoa ha a
135_0548 le ho tshwaratshwara ho sa
135_0549 mahlaku ho ya ho ya
135_0555 masimo a senngwa ho ya
135_0559 mophetwa enwa o ne a
135_0564 ha o a ka wa
135_0566 a mpone ke le koko
135_0568 le phahameng ya boipiletso ho
135_0569 controlled substances acte
135_0574 se e sa hane hwetla
135_0575 british television series
135_0577 shuu ha ke a kgathala
135_0580 teboho e be hempe e
135_0582 league baseball teams
135_0583 sehlekehleke sa diedro lehaha la
135_0584 southern united states
135_0586 ramaqiti e ne e le
135_0587 le eketsehileng ka dintl ha
135_0588 e le ho ipapisa le
135_0589 e tshehetsan g di bopil
135_0592 a re ha a kgathatse
135_0594 larile a latetse ba phirimetsweng
135_0595 microwave radio relay
135_0599 se ka nako tsohle di
135_0600 ha di se di oroha
135_0605 le lempetje ha ore o
135_0606 los angeles dodgers
135_0608 american female singers
135_0610 ka ho re se mo
135_0611 fetotsweng lefutso le v melawaneng
135_0612 o ikgotsofaditse ho ya ka
135_0614 ya sethatho ho iswa ho
135_0616 ho ba hlorisa ke a
135_0617 a phefomoloho papisong le ditshebetso
135_0618 a be a yo re
135_0620 morunyaneng a ba a kgatholoha
135_0621 second world war
135_0623 cc e ka hlodisana le
135_0625 oo mokobobo o na le
135_0626 calluses ho di vocal cord
135_0629 ne a se a tenehela
135_0631 ke dule ke kgwabitlwa ke
135_0632 a e i o u
135_0634 ka ho arohanya ditlhaku o
135_0636 le ka tjheletevv raboditse o
135_0637 bapisa maelana a ho kholomo
135_0638 boemedi ao ho nehelanweng ka
135_0640 motsotuwa ho se ho se
135_0641 eo faele ya data e
135_0647 o se o le motjheng
135_0648 e music flat
135_0651 e be e phethilwe ka
135_0652 ho ba eo rejistra a
135_0653 no tswafa ho le tshwarisa
135_0655 matswantle a iphumanang a le
135_0658 o ne o hirile bahiruwa
135_0660 ya authority to apply e
135_0662 metjhini ya othomatiki e sa
135_0663 ke ha mmalerato abokolla ha
135_0673 old catholic church
135_0674 turkish army occupied
135_0676 ba motenya bo ka fokotswa
136_0006 primitive recursive functions
136_0007 early iron age
136_0008 di springbok ka ho ba
136_0009 e ne e le seqhenqha
136_0010 ya turfloop mekete ya ho
136_0021 o ke ke wa etsiswa
136_0022 ho ingodisa sedikeng sa ho
136_0023 fundamental physics concepts
136_0024 ho oo ho fellwang ho
136_0026 nnyeonyeo o bitsa lebitso la
136_0028 ho ya ka tjhebo ya
136_0030 operation iraqi freedom
136_0031 se ka susumetsang babadi ho
136_0034 ka lengope kgidi ya boi
136_0037 jewish american writers
136_0040 lebelwe e ne e le
136_0042 ne re ya ka nnqeng
136_0043 ho e maha reng e
136_0047 ya pdf ya phr e
136_0049 narrow gauge lines
136_0051 a se a le phomolong
136_0052 boikutlo boiketlo le ho o
136_0053 a thekeselang a moruo wa
136_0055 le tsietsing e tshabehang ha
136_0056 sa ho se sireletsehe ha
136_0057 felehetswe ke tjheletana ya ho
136_0059 ne ho ithabiswa ka metjeko
136_0060 a dibajete ao re a
136_0062 ya mathomo e ne e
136_0064 ya ho tshwarelwa ho leswe
136_0065 a sa topalla boikutlwahatsong ba
136_0066 ho kgutleha hlakoreng la methepa
136_0067 e di boletseng e sa
136_0069 la bataung traders qwaqwa ke
136_0071 ho se ke ha lwanwa
136_0073 ha a le d e
136_0077 clarify date march
136_0078 ka kotlo difaene le dikotlo
136_0080 be o tshetswe ke bannga
136_0081 ya ho suthiswa ha baipehi
136_0082 di a sitisa ka ha
136_0083 kgothatswa ke ho thaotha ho
136_0084 green bay packers
136_0085 iv ka ho hokela ka
136_0088 wa matona a robong ho
136_0090 ke kgitlehang dibete ke boitshwaronyana
136_0091 metsikapa e mo shapang ho
136_0093 great rift valley
136_0095 ho to kafatsa bot lokotsebe
136_0097 gross domestic product
136_0098 a hauhelwe a fuwemosebetsi o
136_0101 a fe mmamolete phiyo e
136_0103 personal income tax
136_0105 la kgiro haeba o le
136_0107 wa ntsholela hanghang o re
136_0119 o ne a itjele ka
136_0120 ya tlhalo ba romele afidaviti
136_0121 clarify date december
136_0126 yeo re ka e fang
136_0130 ha e utlwahale ha e
136_0131 e be e amohelehang e
136_0132 a tshwaetsang a tsamaiswang kedijo
136_0133 ngwanaenwa a nthuta ho fina
136_0134 le dithelevisheneng ho ne ho
136_0139 jorge luis borges
136_0145 ka moahi wa joburg ho
136_0147 ho na le mekutu ya
136_0148 ba foromelang ditene nokengya kgopjane
136_0150 o re ho etsahalang hantlentle
136_0152 dihlahiswa non proliferation status of
136_0153 pheko ke mosotli wa meya
136_0168 tsepamisetsa ho faneng ka ho
136_0180 ya fokolang ya dulang sebakeng
136_0186 ba re ke please call
136_0193 rugby world cup
136_0194 ka ha ho e na
136_0198 nnetee nee yeere ha ke
136_0202 me e be lengolong le
136_0205 o ne a itulela hahabo
136_0208 a koduwa eo e nyarositseng
136_0209 di jehang ba kgonang ho
136_0213 ba se ke ba hema
136_0214 hard disk drive
136_0216 ho ameha ketsahalong ya botshwasi
136_0217 seroki sa morenengha ho etellwa
136_0218 a ba a leba kamoreng
136_0219 foreign language film
136_0220 polymerase chain reaction
136_0222 phefumoloho ho kgohlola le ho
136_0223 ba kopanyang ba kopangwa ke
136_0233 persal e fumaneha setlankaneng sa
136_0238 se o le pshasha ho
136_0241 ka motswetseng ho sa hlonngwe
136_0242 ho hira ikopanyeng le moeletsi
136_0247 ho raleng le ho phethiseng
136_0249 ke lesira le le pudutswana
136_0250 ke ipona ke hlalefile ke
136_0252 career home run
136_0258 ho hiruwa ha ka potefoliong
136_0260 ka bowena o be o
136_0261 american film producers
136_0263 ba tshedisehe o na le
136_0266 le eo e hlonngweng ke
136_0269 ha ramonate o ne a
136_0272 ho fepa le ho nwesa
136_0275 o romelang baromuwa sebokeng o
136_0276 e rerilweng ka lekgetlo le
136_0278 dipuisanong e ne e le
136_0279 o ikgothatsa ka ho re
136_0280 anc ha ba ne ba
136_0281 ba lefitori ha se bonwe
136_0284 in die land wat die
136_0285 mmamenotwana towe o se ke
136_0287 ho south african revenue service
136_0290 lehlwa ha le qhibidiha dithabeng
136_0291 ne a imakaditse ka ho
136_0295 ke hora ya bohlano thapama
136_0299 diselefounu di ka utsuwa ho
136_0300 lengolo la semmuso mohlahlobi o
136_0302 dilomo meru e kopaneng diphulana
136_0303 e a ke le duleng
136_0305 ho itshetleheng ho sa hlokeheng
136_0308 a borikgwe bo botsho kausu
136_0309 a robale ka dieta o
136_0310 a sebetsa ka boyena ho
136_0314 notable examples include
136_0317 mo qhoqhang ho intlafatsa ho
136_0318 bo hlollang ha fihlamotsotso wa
136_0319 e kenngwang dikotikoting e pakwang
136_0320 ka ho toba akhaonteng ya
136_0322 le ho re ho ya
136_0324 mareo le mererong ya diprojekte
136_0326 lebile botsitsong le katlehong kgatelopele
136_0330 hlwatswa sebae ka letoto la
136_0331 o ne a lapile ho
136_0332 ananelwang le ho tlotlwa dibakeng
136_0334 ha a na ho ka
136_0335 h tswala tjheleteng ya tsetetsweng
136_0340 san diego chargers
136_0343 re sa natefetswe ho le
136_0345 lora a haola meruemetala ya
136_0349 states air force
136_0350 ho se ho fanwe ka
136_0352 late bronze age
136_0353 ha di silafatswe ke ditshintshi
136_0354 dikgohola difefo dipula le marole
136_0356 ya kutlo hcps boenjinere ba
136_0357 ha ba se ba tshwanelaha
136_0358 ho felehetswa ke memorandamo le
136_0360 michigan state university
136_0361 strategic air command
136_0362 o lonngwe ke mokgodutswane ke
136_0363 a le khwaereng e ka
136_0364 eo ha e a ka
136_0366 e sa kgahliseng ya dingangisano
136_0367 kgoka hano ya dikahare le
136_0368 world trade center
136_0369 ho ya seteisheneng sa sepolesa
136_0370 e mabapi le dikopo e
136_0371 phoso e tsamaya le mohatisi
136_0372 di ne di ponngwe ka
136_0374 ho mo fa matl a
136_0375 persian gulf war
136_0376 ho na le ho kgaokg
136_0377 natural resources include
136_0378 maqephe a fuperweng ke patanta
136_0379 bonahetse tumellanong ya harare eo
136_0380 absa fnb nedbank a beyang
136_0381 fapaneng le ho ya ka
136_0382 a le boyeneng a hlaheletse
136_0383 ke ho mathakaka majwaleng o
136_0384 ho ya ka diphapang na
136_0386 le ho re o bope
136_0387 skweyiya jj ba dumellaneng le
136_0388 se re sa bue ka
136_0389 e ne e le disontaha
136_0390 konopetswenghantle e le onamatlapa a
136_0391 kgeswa le ho bitswa mabitsobitso
136_0392 ho lebela dithuso mekga e
136_0393 low earth orbit
136_0395 na re ne re itshwenyetsang
136_0396 ke ba ba le kgaoho
136_0397 phethiso di na le nyehelo
136_0398 le nna ke le tjena
136_0399 behela ba mmokanetseng a kgutlisa
136_0401 o se ke wa ikgatella
136_0402 ya poello ha o beeleditse
136_0403 o kgothetse ho na le
136_0404 o re re qhelele moketjana
136_0405 tlalehong eo ha re a
136_0406 e nwelella ka nyollo e
136_0407 quantum field theories
136_0408 re itlamme ka boithaopi ho
136_0409 a se a neheletsa leqosa
136_0410 eo ke ikemiseditseng ho shwa
136_0411 ka ho teba le ho
136_0412 diindasteri demokrasi bokomonisi le bongangele
136_0413 mafosisa o be o tshehetse
136_0414 wa polotiki o na le
136_0415 ka ba ke re o
136_0416 ho paka ho re se
136_0417 buddhism
136_0418 ha e phethwe ha ba
136_0419 bitswang long walk to freedom
136_0421 tshohang e tshwasitswe marabeng a
136_0422 ba itahletse faatshe ba le
136_0423 ho a le b ha
136_0425 ba entse sakanalankope ba tshwarane
136_0426 tj hata ya tshe beletso
136_0427 o se a shwele dikweta
136_0429 e ke e mo phekole
136_0430 e netwekeng ke mohokahanyi wa
136_0431 liberal arts colleges
136_0432 ka ekaba ho se ho
136_0434 ha ho sa na le
136_0435 ya sethethefatsi tjhefu ya khemikhale
136_0436 o phuthile le mehaswana ya
136_0437 mo kgaoletsa kahara serapa sa
136_0438 wa semetletsa wa ho le
136_0439 ho sa na le ho
136_0440 mathajwalo a kotlobane a bonela
136_0441 harvard university alumni
136_0442 bohla o ne a bohla
136_0444 united states secretary
136_0445 mola qetellong ya karolo ka
136_0446 a se a tobane le
136_0449 matswadisa hlobolang mese eo le
136_0450 sekgopi o ka tshepela ho
136_0451 ho kenyelletswa le la keresemese
136_0453 itoile ka bowena mohlomong le
136_0454 president abraham lincoln
136_0457 di romelwe ho ya tjhaelwa
136_0458 sa o tlwaelang ho se
136_0459 ho e na le ba
136_0460 le mtshwao a tshupo a
136_0463 mafura peterole e nyoloha ka
136_0464 bophelo bo botle le polokeho
136_0465 a tshabehang a lefifi ho
136_0466 itlama ho se behe saps
136_0468 felehetsa ho kgutleha hlakoreng la
136_0469 ba ka hodisang dipoelo ka
136_0472 cricket world cup
136_0473 tlhapa e ne e sa
136_0477 ba bangata kamoo ho ka
136_0480 e lethwethwe o elellwise mokomishenara
136_0482 le ka madungwadungwana ho ya
136_0483 iswe ho ba baholo le
136_0485 profeshene e se e kgathile
136_0486 wa mautse ha dubeha ha
136_0487 eo ho buuwang ka yena
136_0489 hadiindaseteri ho arolwa ha diindaseteri
136_0490 le maqheku a lenyalong ba
136_0492 re ye re sitele jehova
136_0495 tadimile ka leihlola kaine ho
136_0497 na ie seoa se unang
136_0499 ha o qeta o be
136_0500 a bala le ho boha
136_0502 ha a na anyalwe a
136_0503 e ke be e rutile
136_0505 e se ke ya ba
136_0506 e ne e le nthho
136_0509 a di utlwisisang le ho
136_0511 o se o mo ja
136_0512 ka hanelwang ho ba le
136_0515 ne di na le ho
136_0517 ke se ke ekwa ke
136_0518 ne a se a utlwetse
136_0519 a ka be a sa
136_0520 ba makatsa ka ha ba
136_0521 ha a sa e fuwe
136_0522 na ba se ba thusitswe
136_0523 cite journal title
136_0524 ha eo a se a
136_0527 ya b le ya c
136_0529 obitjhuari ka ha le ne
136_0530 le ho se utlwane bara
136_0531 hatabatsabatho ke ha a le
136_0532 mohlomi o ne a ithatela
136_0533 ho tiisetswa e le ya
136_0534 mafellong a mesifa di ba
136_0535 a mo jakisa jareteng ya
136_0536 re se mo tlatlapile se
136_0537 ba angwang le ho tshwaetswa
136_0538 na o kgathatswa ke lesokolla
136_0539 o ke ke wa e
136_0540 ha e se e ntshitswe
136_0541 ho re ho se be
136_0543 a ne a re re
136_0545 ke sa na boikgethelo ha
136_0547 e re ke o bolellennete
136_0549 ke mona o se o
136_0550 ha ba ne ba sa
136_0551 million years ago
136_0554 naval air station
136_0555 re re ye wits ka
136_0557 ka ke sa tsilatsile le
136_0558 ho ne ho se ho
136_0560 o e na le sehatsetsi
136_0567 a setso le a sepolotiki
136_0569 a di botsang ka lewatle
136_0570 na le ho kgaokg aoha
136_0571 kgolong ya ka le tshiung
136_0573 west african states
136_0574 uke ichi ni san ji
136_0575 a sa ka a mo
136_0576 ha e le ee dihora
136_0579 ba mo epela ba mo
136_0580 mokuru o se o sibile
136_0582 e be re ke ke
136_0583 original game boy
136_0584 ha ba hlomphe mosuwe ya
136_0585 a tsweretse sa tweba e
136_0586 ke ne kekopa matlaa ho
136_0587 e sebeleditsweng kathata le ha
136_0588 on financial awards pfa dinnete
136_0590 ha e ba a na
136_0591 ha ba ka ba a
136_0592 ke e o na le
136_0593 ha e be ke ee
136_0594 ho se qose ha se
136_0595 ha ho ne ho sa
136_0596 oporeishene ho kokobetsa mahlaba le
136_0597 e ne e le senokwane
137_0002 le ofisi ya motsamaisi wa
137_0003 ba re ha ba sa
137_0006 ha se monwana ha le
137_0007 kansas city royals
137_0008 ha ke ne ke se
137_0009 swine flu e se ke
137_0012 na mosadi ha e le
137_0014 engineering task force
137_0016 la provinse dibankeng le ho
137_0017 e governance e learning e
137_0020 ho fapafapana ha ho kgethwa
137_0022 ha ho kenwe selekaneng le
137_0023 le lebiswa ho moadvokate j
137_0025 operation desert storm
137_0026 united states congress
137_0028 hong kong island
137_0029 a ko nahane o be
137_0030 hillbrow e ne e le
137_0031 itshwere thekeng a re ho
137_0032 le d ho tshireletsa leqheku
137_0034 ya swine flu ke ho
137_0038 kgohletse a le dibebe molomong
137_0040 ya ka ha e le
137_0043 o be o hlalose ka
137_0044 wee ee a hweletsa a
137_0045 ho nyalanngwa ha di rutwa
137_0050 ba e abetsweng le ho
137_0051 san ji go roc sichi
137_0052 e amohetswe ho sasa le
137_0054 ka pakana ya sakarete le
137_0055 academy award nominations
137_0056 day saint movement
137_0057 se manollwa ka bo tlalo
137_0059 ne a se a roballetse
137_0060 ya eketseha ka ho bonahalang
137_0061 professional sports teams
137_0062 ba ke ke ba ba
137_0063 mekgatlo eo eseng ya mmuso
137_0065 podumo ya moemanotshi ya ba
137_0066 so fele tlhophollo ya ho
137_0067 ha o sa di hlokomele
137_0075 lokolla le ho re ho
137_0076 di se o tshwenye o
137_0078 tshimolohong o tsebile e sa
137_0079 se kwetsweng ho ya ho
137_0080 los angeles area
137_0085 ka ho tsuba boikwetliso le
137_0090 ba ne na ye ba
137_0091 oo mohlolo o ke ke
137_0092 matleng le mananeong a matlafatso
137_0096 ka ho sisinyeha ho hosesane
137_0097 le be le ditsebo le
137_0098 ha e ba le tlokotsi
137_0099 mohwehadi ha di thabiswe ke
137_0100 le ho tsetela le meruo
137_0101 le diqhwaha le dipudumo ho
137_0102 a sa hlapa ha a
137_0103 ne e opa a nyokgoloha
137_0104 ke advocate le ha ho
137_0105 ha le boulelle sowana ba
137_0106 le ho lwantshana le botlokotsebe
137_0108 le ho bohehang ho sa
137_0109 o ne a boetseatshwerwe ke
137_0110 ne a tadimeha a se
137_0111 le he e ye e
137_0112 o re bopileng ke a
137_0113 chicago white sox
137_0114 ka letsholo la ho baballa
137_0115 e kathoko ho tlhopho e
137_0116 a ke ke a tata
137_0119 le ho mo qhobella majwe
137_0121 di na le ditsebo le
137_0127 le dintwa vmme e ne
137_0128 ho hlotjhwa ha ba di
137_0129 bo botlo le bo ka
137_0130 o tswile kotsi e mpe
137_0132 largest ethnic group
137_0134 roud ya wto re kgodisehile
137_0135 motjekong bashemane re ne re
137_0136 di boletseng e sa fokotse
137_0142 ha se a ralwa ka
137_0144 ha ho na ho ba
137_0147 e ne e le nonyana
137_0148 le bonase ya kheshe eo
137_0149 se e le ho ka
137_0150 lelapeng ho ka ba le
137_0151 molamu o kopane le tshepe
137_0152 ka ha o se o
137_0153 oo ho ne ho le
137_0155 di sa fohlwa o a
137_0156 sa bosuwehlooho ke se tjhesang
137_0157 a le holena la meutlwa
137_0158 ba leloko le metswalle ho
137_0160 tsabosetjhaba le ysa profense di
137_0161 e kalo ka r e
137_0162 valence bond theory
137_0163 le lequlwana la dinokwane le
137_0164 poello ha o beeleditse ho
137_0165 lebososelo le monaleo a tummeng
137_0166 ho ya ka dipolotiki basebedisani
137_0167 di e ja e le
137_0168 ha ke se ke sa
137_0170 hlanya ho ne ho batleha
137_0171 na lepato le ka tswelang
137_0172 ho ba bahlopholli ba peo
137_0173 qhekella mofumahadi wa morena ramoroko
137_0174 e se be eo mmate
137_0175 la ho potlaka ho ka
137_0177 ke bosotho nthwese kola sa
137_0179 e ne e ka ba
137_0184 se bo ikakgetse ka setotswana
137_0185 ho lefela ba porofeshene ya
137_0187 castel sant angelo
137_0188 a robedi kamora polotso ho
137_0189 beleha le ho adoptha ho
137_0191 la tiiso ka e meile
137_0192 di tshwauwe pampiring eo di
137_0194 itebohela ha ke sa ka
137_0195 ba matriki di se di
137_0199 ka ba ke hanana le
137_0200 ya ho ba le dikimi
137_0201 qotsitswe le ho lokiswa ho
137_0203 ye a re o ka
137_0204 la ka ho ipapisitswe le
137_0205 elected prime minister
137_0207 medieval islamic world
137_0208 ho nahana le ho amohela
137_0220 a shwa ke a ikepela
137_0221 ho nyahama ho ka bakwang
137_0227 le yena o ne a
137_0231 chinese new year
137_0233 tikolo ya karolomoruo eo e
137_0236 tshepisane a se ke a
137_0237 ba hatellwe ka ho tingwa
137_0241 american film actors
137_0243 wa emalahleni mof malatjie o
137_0247 monnae a mo atametsa ho
137_0249 e nngweentlee mo susumeleditse ho
137_0250 ka tenwa ke ha di
137_0252 le mekgatlong ya baserbetsi ho
137_0253 bapiswe le tshupamolato eo ho
137_0255 different ethnic groups
137_0256 ho na le matshosetsi a
137_0257 le ha ho nnile ha
137_0258 a lora a haola meruemetala
137_0260 roka le ke motjheso walehlabula
137_0263 eo o ne a lahlile
137_0264 e ne e bapalwa ke
137_0270 ba ath party
137_0272 british prime minister
137_0273 o tehele mohlalanyana o mosesane
137_0276 world health organization
137_0277 green coffee beans
137_0280 american science fiction
137_0281 theoha koloing ya baeti seteishening
137_0285 lekotsi e kieng ya etshahala
137_0286 world s largest
137_0291 mmankepe bo totiswa ke ho
137_0292 e le homeritshana e meputswa
137_0294 mosotho o ye a re
137_0299 utswe ha ba qale leshano
137_0301 ya diahi ho nhbrc le
137_0302 difounu le difekse le ho
137_0310 re ho a be ho
137_0313 le maruo a terasete ya
137_0316 ke re ho ye ho
137_0319 ho a tlama ho tlatsa
137_0320 ya basotho ho ne ho
137_0324 studies and journalism ekasitana le
137_0325 di entswe ho na di
137_0327 hlano a le modudi wa
137_0330 pro football hall
137_0331 le maqhubu a radieishene sepakapakeng
137_0332 later middle ages
137_0333 ba itlhophereng ba na le
137_0335 matsatsi a mashome a mararo
137_0345 verifiable source proving
137_0346 parliamentary representative democratic
137_0352 le phosphorus e ka ba
137_0353 hlomi o ne a bolelle
137_0354 ka mahlong motsotso o molelele
137_0356 le ho se tsejwe ha
137_0358 o atlehile ho kgina tshwaetso
137_0359 hehehe ho re ho na
137_0360 se busetseng ho nkwa ha
137_0362 ho eo ho itsweng ho
137_0366 ho hlometswe ho tlatlaptjwa ha
137_0367 aha keketseho ya ho fehla
137_0368 re hotse tlasayonao se ipateka
137_0369 le sisintsweng le rerilweng mohl
137_0374 ha sheri a dumetse ho
137_0377 bulele ha ho se ya
137_0381 na ho ba le boitelo
137_0382 ka ho qholotswa le ho
137_0383 ya thutapuo ka bokgoni bo
137_0384 united states government
137_0387 ho division liquor products stellenbosch
137_0388 boya ho ne ho tletse
137_0389 tjhonneng ha a ka a
137_0390 keleng qetelong le dite maneng
137_0392 ya mokganni wa borutehi bo
137_0394 holy roman empire
137_0397 bo omeletseng bo meqilweng ka
137_0398 india le akanang le la
137_0399 ho nthusa ha ke le
137_0400 mofelehetse ka ho re ha
137_0401 ho moedi wa bofutsana le
137_0402 ha ke re ha ho
137_0405 e meng e ne e
137_0406 natural number n
137_0410 best original screenplay
137_0411 ke ne ke le tsietsing
137_0412 ka ha a mo tlwaeditse
137_0413 le thulano ya dikgahleho ka
137_0414 hahang ha a hlokofetse a
137_0415 e le ha a sa
137_0416 mehau ha re a bokolle
137_0417 mandela o ne a le
137_0418 dikgohlopo o ne a na
137_0419 ho se tshwanelwe ke ho
137_0420 le ya bonna le bosadi
137_0422 efela e le ya tlotseng
137_0423 lethathameng le pharaletseng le le
137_0424 ho tsitsa bokahareng ba ka
137_0425 a ka re hopolang ka
137_0426 ho se mo sune ha
137_0427 di buisane le fhr ka
137_0428 se e le ka makgetlo
137_0429 verify credibility dater
137_0430 e le diritsa ba kgaohile
137_0431 rejisetara le sephetho di loketse
137_0432 v ha a ne a
137_0433 e tshelwang matamong a ho
137_0434 ha e a nkgotsofatsa hohang
137_0435 otlile a ba a mo
137_0436 dubious date march
137_0437 ke ha a rohakwa ka
137_0438 e hlwailweng ha ba ha
137_0439 ke ho methwa ha mafura
137_0440 ba sebedisang matsoho ho buwa
137_0441 e ka ha ho a
137_0442 ne sa e romele ha
137_0443 phokotso phanyeho le kgaotso ya
137_0444 e sa le ba o
137_0445 e kotjwang ke rekoto ya
137_0446 a mmatla ka ha a
137_0447 army air corps
137_0448 letlalepepilwe o ithorisa o re
137_0449 qheku lela le dutsengpelabona le
137_0450 se a hatile molelema o
137_0451 ha o ja ho ja
137_0452 le ntshiuwa ba se ba
137_0453 a mangata tlolo ha ho
137_0454 ho se tlhokahalo ya ho
137_0455 ho roka ke ho bokotsa
137_0456 le na le vitamin d
137_0457 o a sebesisitseng a se
137_0458 kemangau a e hlepholaka ka
137_0459 ha ke re o ne
137_0463 ahwa wa morapedi ha ke
137_0465 o e romelang ha se
137_0466 e ne e le makgowa
137_0467 game boy advance
137_0468 p na ke lefa ka
137_0469 a bonahala ha ho le
137_0470 a ke keng a ba
137_0471 le ya mo sitisang e
137_0472 eng ha o se o
137_0473 kgodise ha di tshehe tswe
137_0474 o a ntjodietsa ha ke
137_0475 se di sutelwa ka mokotleng
137_0476 american voice actors
137_0477 ke ne ke etetse ha
137_0478 mmisi lekena o ne a
137_0479 yahae e talana e pepileng
137_0480 leakaretsi o be o le
137_0481 o re o a mo
137_0482 a ithaburanya ka ha a
137_0483 a ke ke a le
137_0487 radiopane a ka be a
137_0488 le ha a le ka
137_0490 kantorong eo molefi a dutseng
137_0491 ba ne ba ka hapa
137_0492 o kgesa ha ba o
137_0493 phokojwe ha e tshela moedi
137_0494 le mmatheko ene e le
137_0495 sa balang le ha ho
137_0496 ya maswetso e ikarolang ho
137_0497 vasco da gama
137_0500 ha mosifa o honyela o
137_0503 ne ke re na ha
137_0504 modumellani a ke ke a
137_0505 thabeng le ha ho le
137_0511 ho sa bola o a
137_0512 boi ba tjhetjhe letsholong ba
137_0515 ka mmaletswai o ne a
137_0517 l cuin abbr
137_0518 san francisco bay
137_0519 hoba ha ke re ke
137_0520 thellisane phupekalefe di ne di
137_0521 diphoofolo di na le ditokelo
137_0522 ne a se a tletse
137_0523 dibakiso e ne e le
137_0524 ke tshohe moru o se
137_0525 na ha o sa mo
137_0526 a di shebe e be
137_0527 ho latele tumediso monghadi e
137_0530 tshetso ya setekgeniki le ya
137_0531 motlakase ba fepelwang ka motlakase
137_0532 ne ba ithabetse ba ipinela
137_0533 o ka ba le sethunya
137_0534 v ha a ka a
138_0001 los angeles times
138_0005 international criminal tribunal
138_0011 ba metseng eo eseng ya
138_0012 hwa jewa dikuku le nama
138_0013 bo kgile ka dikgopo le
138_0017 hello world program
138_0021 la nkgwebetha la re ke
138_0022 tu ebile ha ho sa
138_0024 helang ha e sa le
138_0027 kgoho e tshwerwe ke mokoeyo
138_0028 ke o ratela bohlalefi ba
138_0029 makubetso le ho ja ho
138_0030 letootong le sa kgaotseng la
138_0034 ha senyeha ka holong ya
138_0035 adriaan a mema borakgwebo ba
138_0036 matatiele ha a ne a
138_0040 occupied cypriot area
138_0041 digital equipment corporation
138_0044 ha ho le hongata ho
138_0046 le e governance e learning
138_0047 bo sa amoheleheng le ho
138_0051 o hlekefetswa ka ho shatjwa
138_0056 ba ka susumetswa ho ya
138_0057 high school alumni
138_0063 science fiction hall
138_0065 national football team
138_0069 ho re ha e le
138_0070 ngwananyana waseithati ya tshepileng ho
138_0072 ka ho o tjodietsa ka
138_0074 ba monyetleng wa ho hahlamelwa
138_0076 mahloko a kgaello ya ayodine
138_0079 battery park city
138_0080 hamorao ho ye ho etsahale
138_0081 ke hle ke o jwetse
138_0082 ke futswela bohobe ka menyepetsi
138_0085 russian orthodox church
138_0089 gravitational potential energy
138_0091 le ho se latelwe ha
138_0095 party united states
138_0096 eo nalane le jokorafi di
138_0097 late twentieth centuryodowska curie
138_0098 geologic time scale
138_0099 ha a ka ke a
138_0100 ha se a ka sa
138_0101 tb e tsohileng ba ka
138_0102 operation enduring freedom
138_0103 mmathulare hammoho le qaka eo
138_0104 tlalang le ha ho le
138_0105 sa kgotsofatseng ya cjs ha
138_0106 a ho enta le ho
138_0107 states district court
138_0108 united states house
138_0111 tswekere ya illovo e tshweu
138_0113 le ha ho se ho
138_0115 ho ba le kabelo e
138_0116 box office success
138_0119 re o fiela phaposi ya
138_0120 le ke le nthuse ho
138_0121 united states supreme
138_0122 hla a ala leleme phate
138_0124 moetsi ketso moetsuwa katoloso jj
138_0125 o ne o sa mo
138_0128 ke tjhefo e kwaeng e
138_0130 a thupelo diphetolelong le tlhaolong
138_0132 ya bokenadipakeng ya tonakgolo e
138_0134 o sa qoqweng ke dipapiso
138_0135 e sa nepahalang e sefuwe
138_0137 re tsho ho ne ho
138_0138 ha di sa le setlwaeding
138_0139 la mammila le okametsweng ke
138_0141 morabaraba sethetsabadisana ha ho bolelwa
138_0142 na o sa tshwanelaha na
138_0143 le sa le letjha ho
138_0144 ne a futsitse lebitsola haehobanee
138_0145 ke eo o kwenehetswe ke
138_0146 ka ha ho bontshitswe tekodisiksong
138_0147 a ka wa phethisa ka
138_0148 greenhouse gas emissions
138_0149 yom kippur war
138_0150 ne o kopile koranta ho
138_0152 polakwang dihekeng le mamating a
138_0153 clarify date january
138_0154 ho thweng ke hotsitsi eo
138_0155 ke ikutlwa ke imolohile moyeng
138_0156 kgotsa mmamoleko ha se dingwetsi
138_0158 di hlwekile di sa tshwehle
138_0161 ie seoa se unang ho
138_0162 ne ho e na le
138_0164 dihlekehleke madiboho marokgo le metjhophoro
138_0165 o sebedisitse melao e hlokehang
138_0166 ne a bolelle mmae ka
138_0167 letlaila le ho tlaila moreneng
138_0169 le se ke la bolellwa
138_0170 a ne a hanela monyaduwa
138_0171 ya boingodiso e ipitsang ka
138_0172 ho tshwana e re nke
138_0173 maiteko a ntjhafaditsweng a dinaha
138_0174 ke ne ke safufulelwa ho
138_0175 mabothobotho a bonojana bo tsotwang
138_0176 ho santaco re ke ke
138_0178 billion years ago
138_0180 ya ka ka kglofalo e
138_0182 ha a ke ke a
138_0183 sa ho ntshetsapele ikonomi e
138_0184 ho na le lera la
138_0185 o amohetsweng ka ho qoholleha
138_0186 adelaide tambo o ne a
138_0189 supa ku tlwisiso e kgabane
138_0191 ho ba le masimo ao
138_0192 na le tumelo e feletseng
138_0194 o ne a pudukane ho
138_0195 o ne a le bohareng
138_0196 air traffic control
138_0198 apesa ho kupetswe bofeela ba
138_0199 npo le ha ho le
138_0200 lokodisitsweng ke mofuputsi ho kenyeleditswe
138_0202 ya ho potlakisa kgokahanyo ya
138_0204 procedural programming languages
138_0205 ba ruisitse maqheka a bohlalefi
138_0207 a thusana ha le le
138_0208 ne bangongoreha meyeng ha ba
138_0209 ho na le di hansard
138_0210 ho na le phokotseho e
138_0212 oo o be o mo
138_0213 o ikenya tshotso dinaleng o
138_0214 a seterateng a ne a
138_0215 momahanyo le ho boikamahanyo ba
138_0216 e a nenwa naheng ya
138_0218 ha ke re o utlwile
138_0219 hlokahalang le matsapa a ho
138_0221 ka motjhanae ontse a hotse
138_0222 ya penshene le ya ho
138_0223 football clubs established
138_0225 natural gas reserves
138_0226 c ho ngangisana le ho
138_0227 o ka wa e noha
138_0228 appointed prime minister
138_0230 ka ho ngolla moromowa ho
138_0232 ho re ho na le
138_0233 o na le kgohedi e
138_0234 le moputswa pududu a sa
138_0235 o ne o ka ba
138_0238 mo kwalamolomo ka seatla sa
138_0239 bo ne bo hwebisana le
138_0240 o mphara ka melato eo
138_0241 e hokahaneng tlwaelo ya ho
138_0244 na ho sehwajwang ho rokwa
138_0247 thothokiso le ya sengolwa sa
138_0248 ho tsamaisana ka ho lekanale
138_0249 ya ho fa bangga ba
138_0250 e le ha ho jewa
138_0251 sports clubs established
138_0253 ho be le phumantsho e
138_0254 boahisani le european union maelana
138_0260 ke kene morerong oo wa
138_0261 world heritage site
138_0262 kgothaletswe ho iqalla le ho
138_0263 rarahane e na le ditumelo
138_0264 e moholwanyane ha a kopuwa
138_0265 be ho petsohe le mafika
138_0269 ka phaposing ya ho phomola
138_0270 citation needed april
138_0272 tafoleng eo ho tsebiswang ho
138_0274 le se le mo rutile
138_0275 ka mabaka a utlwahalang ho
138_0276 human rights violations
138_0277 ho re ha e a
138_0280 le baphedisuwa ba ka e
138_0281 fuwang mosebedisi ho kgema le
138_0283 american league championship
138_0284 e se e hlahelletse poyaneng
138_0285 a itshehela a ba a
138_0286 mookgo o ne a iballa
138_0287 a post graduate di institjhusheneng
138_0288 methodist episcopal church
138_0291 wa ba wa leka wa
138_0292 manufacturer for agoa particulars di
138_0293 ne o le bolepolepo o
138_0294 institushene e tshepuweng ka ho
138_0296 tu ha ho sa na
138_0297 a o fetohela oiphumane o
138_0299 kuruetswa ke ho re a
138_0300 ba hlwauweng ka ho ya
138_0301 eyes wide shut
138_0302 high seas fleet
138_0307 ke utlwile bothabiso ba re
138_0309 le ho se ba fe
138_0310 ho phethela boikwetliso ba thapameng
138_0311 free software programmed
138_0312 re majalefa a sekema se
138_0313 la ho se utlwane ka
138_0314 ho ka be ho sa
138_0316 tseno ka ha di ke
138_0317 round table le rotary le
138_0318 ha e a etswa ho
138_0319 ba bolotsana ke re ha
138_0320 ka ho qolleha ba kopanye
138_0321 ho ba ramotse tikolohong ya
138_0322 tefo ditshehetso le menyetla e
138_0324 na o tiisitse ha o
138_0325 ao a sa ka a
138_0326 se tsotellang le se tsepamisitseng
138_0327 wa mooki tliliniking e ka
138_0328 ho ba le kano e
138_0331 le mosenekeng ke ha di
138_0333 bafubedi ba re tlere ke
138_0334 e se e le ba
138_0337 etlare ha ke tea kalala
138_0338 ya mo fenetha ha ba
138_0339 mekga e thusang ka ditjhelete
138_0340 ho ne ho tsohwa ka
138_0342 sa qoso le bohanyetsi mahla
138_0345 tshware babelaelwa e be ba
138_0346 ha letsohole fepela mmetso morenao
138_0347 tshenyeho ya mesifa mascular dystrophy
138_0348 kgelohang tokelong ya bohato bofe
138_0349 ho notlellwa ha di sa
138_0350 ho yahae e ke ye
138_0351 summer olympic games
138_0353 ho ile ha ba le
138_0354 ka makgetlo a tsheletseng ka
138_0356 ka nepo ho fetisa ka
138_0357 african development bank
138_0358 official diplomatic relations
138_0359 a se a swentse ka
138_0360 hugo award winning
138_0362 ho dumedisa mmamoruti ha a
138_0363 e be ke mokgethi wotong
138_0364 boqhetseke le ka bohlwahlwa ha
138_0365 thehileng matleng le mananeong a
138_0366 a ikemisetse ho reupella le
138_0367 wa matsibolo a se a
138_0368 le ha hone ho le
138_0370 pitsa e phehang gauta ka
138_0371 ka ha ke ne ke
138_0373 ba intshang sehlabelo ka ho
138_0374 barutwana le matitjhere ba be
138_0375 tshwenyehile o se ke wa
138_0376 la dikgokahano ba in communications
138_0377 ditshila ya ho bapala ka
138_0378 following demographic statistics
138_0379 le tshwantshe le la ka
138_0380 johann sebastian bach
138_0381 se nw e seno se
138_0382 amateur radio operators
138_0383 e kgwaetse ka lehafing a
138_0384 eo ba mo feheletsang ka
138_0386 human rights abuses
138_0387 nafvsa e na le phaposi
138_0391 sa qeaqee le ho qeaqea
138_0395 congressional gold medal
138_0396 atomic energy commission
138_0397 se batlwang ke takadimane ba
138_0398 ha o seilwe ke ba
138_0399 ba le phehiso e tlotlehang
138_0400 ne ba ye ba re
138_0402 aung san suu
138_0403 wat sal my nou te
138_0405 buisanang le ho ngangisana ka
138_0406 disebo o ipolaile a ba
138_0407 ka re makau ke sebapadi
138_0409 irish republican army
138_0410 phe thetsweng se baleha ha
138_0411 ne o ntjodietsa ha o
138_0413 re e ka mo loma
138_0414 mohlomi o ne a etelwe
138_0416 hlotjhwa ha ba di shebelletse
138_0417 e nngweba ne ba bonesaka
138_0418 se a kgahlilwe ke ka
138_0419 ho se ho ho le
138_0422 e ka ba le ditlamorao
138_0423 ntlheng le ha e le
138_0427 e lelefalang le ho kgutsufala
138_0428 na le seroto se sa
138_0429 international maritime organization
138_0430 tebetebeng eo o nkentseng ho
138_0431 a welang makaleng a tshwanang
138_0432 moporesidenteha ho na motshwaruwa ya
138_0435 serapa le ho hlwekisajarete le
138_0436 afidavite e tswang ho setho
138_0437 matshwafo a se a uba
138_0438 e lwanenela lepatlelo la dithekiso
138_0439 ha re lekola dikopo le
138_0440 e re pududu a sa
138_0441 a sa ka a kgaola
138_0442 a pula a phallella ka
138_0443 le ho ipapisa le thomo
138_0444 le ho tshehetsana le ho
138_0445 le ja podi ho fetafeta
138_0446 le ho se sebedisane le
138_0447 tsamaiso ya sekema le ditlhophiso
138_0448 tjhotjholosa ba ne ba le
138_0449 e se e ie dibeke
138_0450 le apesa ho kupetswe bofeela
138_0451 o ne o e so
138_0452 samuel taylor coleridge
138_0454 bavouti ba ingodisitseng ba tlohileng
138_0455 ntjapedi ha e hlolwe ke
138_0456 wa ket sahalo ya ho
138_0457 national historic site
138_0458 malapaa utlwilengbohloko kabaka la horeemongwa
138_0459 ya ka tlelaseng setsing sa
138_0461 le ha e se a
138_0462 sa thomelo le thomello ya
138_0463 le ho hlahisa dipalopalo dikhopi
138_0464 e ka ba le makukuno
138_0465 e raduweng e se e
138_0466 mo tshabang ho nkgisetsana mahafi
138_0467 o ka tlasenyana koporo ho
138_0468 maru a matsho a fifetseng
138_0469 mme o sehe mola qetellong
138_0470 john maynard keynes
138_0471 tjhetjha a ba a tjhetjha
138_0472 re ba memmeng ka ho
138_0473 ho bolokwa le ho hlokomelwa
138_0474 ka theko o kgutsa motsotswana
138_0477 sa dikulo difensetereng le monyako
138_0478 o re qobella ho hasanya
138_0480 ke ba ha e le
138_0481 national security council
138_0482 ya vat vendor search ke
138_0485 o ne a hlabile dioka
138_0486 boikopelo re se re sa
138_0488 direng ba mo seohela ba
138_0490 re be ngatanngwe ke pheto
138_0491 o ne a sa thothomele
138_0494 o sa dumellwang wa ho
138_0495 ho ya ka bafuputsi ba
138_0497 dipalesa mabitleng e ne e
138_0498 dikgomo le manamane ha bashanyana
138_0499 e le ba ahetseng tjhankaneng
138_0500 ba fuwe dipilisi ha ba
138_0501 a re itjhuu itjhuu itjhuu
138_0502 bomolao boikarallo ho ba le
138_0503 o se ke wa kenya
138_0504 se ke wakgahlwa ke lefiso
138_0506 mahaladitwe le ditshehlo ka ho
138_0508 e na le boikarabelo ba
138_0509 ho ya ka dikereiti mephatong
138_0510 se phethahetseng setjhabeng le dibakeng
138_0511 developments pty limited le khayalethu
138_0512 ba ne ba le thekong
138_0513 be e se e kgutlisetswa
138_0514 setsi le ho ba le
138_0518 mo hatelletseng e ba mohlodi
138_0519 ho se o lefise ditefiso
138_0520 sa cricket ka ho ba
138_0521 ho bokella le ho kopanya
138_0522 di buwang ka boikobo bo
138_0523 ne ba seretswe ha mefenetha
138_0524 le ho ba tsietseng ya
138_0525 bo ke ke ba fetolwa
138_0527 metjha ya kahare ka ho
138_0528 e lwanelang ditsela ha e
138_0529 kgomathisetse tshaeno le ho hatisa
138_0530 ho ba pepenene le ho
138_0531 a ke ke a fetolwa
138_0533 le a phunngwamme moloio a
138_0534 le nehelano e nang le
138_0535 thenthetswa le a nyonya le
138_0536 ba mapolasing balemi rui le
138_0538 la phapang eo e a
138_0539 eo e ke ke ya
138_0541 neho sa kahaeba le lerataka
138_0542 le kelohloko e hlokolosi ya
138_0543 baena le dikgaitsedi ke thatano
138_0544 ba hema e re ha
138_0546 ne ba loha leqheka lee
138_0547 ho ne ho phethesela ke
138_0548 ke ke ba ba le
138_0549 malomao ya o hodisitseng ho
138_0550 ho ikakgela kasetotswana ho kenyeng
138_0551 ho na le dingongoreho ka
138_0553 na ha o ka kgethelwa
138_0554 yare ha ba kenella ka
138_0555 santaco re ke ke ra
138_0556 ho letsa diletswa ka ho
138_0558 e maikemisetsong a ho ka
138_0561 se thibelang mafafatsane a ko
138_0562 ba tjhetjhe ha e le
138_0563 dube thankga a be a
138_0564 o a qeaqea ha a
138_0565 ka matlotlo ao re a
138_0566 ke ke wa ba le
138_0568 o re tlotlolotse re ne
138_0570 a se a bina sefela
138_0571 le lesisithehonyana ho ka phunya
138_0572 underwriter ho ya ka pholisi
138_0573 le ha hothwe ke lenqosa
138_0576 ho ipapisitswe le melawana ya
138_0577 se saenetswe ke baamehi ba
138_0578 mamenemene ba bolotsana ke maqitolo
138_0579 ho se hlomphehe ha ho
138_0580 united nations peacekeeping
138_0581 tsena e ne e le
138_0583 ke ke ya rarolla mathata
138_0584 steyn delport a fa mmueli
138_0585 le ho senolwa ha sephiri
138_0592 a ntshahlooho ka dikobong a
138_0593 le ho kgannelwa bohatong e
138_0594 wa difate o ka nqane
138_0596 british foreign secretary
138_0597 le re ha le sa
138_0598 ha ba se ba sa
138_0599 khomeshenara wa dikano ke ho
138_0600 le ho thunthetswa ka ho
138_0603 ke be ke wele ka
138_0605 ho ba le dikri ya
138_0606 california state university
138_0607 qabang ya ka le ba
138_0609 kgotjwa e le maoto mane
138_0610 mo nyala le ha a
138_0611 ho na le ho se
138_0612 le ha mofammere a mo
138_0613 b c d e ho
138_0614 ya my wellness ya webosaete
138_0615 o ne a tadimane le
138_0616 a sa ka a tsotellwa
138_0618 supileng sehlekehlekeng sa robben ha
138_0619 le ho re fotseke ntjeng
138_0622 ke re o mo hlale
138_0623 e nngwe le e nngwe
138_0624 internet service providers
138_0625 lethoko o ne a tadimane
138_0626 sepikara ke motlotlo ho tlaleha
138_0628 nakwana e re nengneng a
138_0629 ha metjhini e se e
138_0631 wa monahano daekramo tjhate e
138_0635 na o entse kopo ya
138_0637 e tebileng ya phetolelo dipuong
138_0639 ke sefeng se re tlisetsang
138_0640 ya vii c le ya
138_0642 ba ho se be le
138_0643 nehela ka sampole botlolong e
138_0644 e ke ke ya itshetlela
138_0645 ho kgwathwa ha konopo ya
138_0648 jwaletjena o ne a se
138_0649 ke ha a shoba mathobisa
138_0650 a ho ikamanya le pallo
138_0652 tlokoma ha ke ne ke
138_0653 a hlokahetse ho ya tlatlapa
138_0654 topological space
138_0655 o ye a re ngwanamahana
138_0657 o se a re ptjangptjang
138_0658 otto von bismarck
138_0660 le barwetsana ba a ba
138_0661 ya sa di hadikelang ho
138_0663 le ha ho ya ka
138_0665 ba nkela motjhesi koloi ya
138_0666 le molatswana o phallang lesodi
138_0667 ka be o di sebeditse
138_0668 ha ho bapiswa le ho
138_0669 le ne le le lekgubedu
138_0670 ho bafani ba tlhokomelo ya
138_0671 application programming interface
138_0672 ho ya ka kutlwusiso ya
138_0675 se kgwatha senare sa katara
138_0676 mohopolo o hlahisitsweng moleng o
138_0677 o qakile ke ha ke
138_0678 e qaqisitsweng sehlomathisong sa a
138_0679 le ya metjhining e betlang
138_0680 captain james cook
138_0681 semomotela pabala twadi e padileng
138_0682 ho be le tsamaisano le
138_0683 sekiri sa ho hama e
138_0684 eo ke e palamang ka
138_0685 o ke ke wa kotjwa
138_0686 hoya kamelao e kamorao no
138_0687 ditonele dikwari le ho ripitlwa
138_0688 pheha o bohale le ho
138_0690 single transferable vote
138_0691 mo rekela motjhini o rokang
138_0692 ya dumelletsweng wa tlhakiso diofising
138_0693 kgutsitse tu yaka ha ho
138_0694 e se e le morwetsanyana
138_0696 baithuti ba mophato o mahareng
138_0697 internal combustion engine
138_0700 le lera la lefufuru lefufuru
138_0703 wa kgodiso eo ntataemafikeng a
138_0704 ha ke ne ke pepile
138_0705 e kgonahalang le e ntshetsang
138_0706 ba mohlomphehi seeiso mohai slp
138_0707 coronary artery disease
138_0708 ha ba hopolamora eo wa
138_0710 ha a se a bolaile
138_0711 nuclear weapons program
138_0713 o se o lahlehetswe ke
138_0716 ba kwetliswang le bakwetlisi bakwetlisi
138_0717 boholoholo ho ne ho na
138_0718 ke toloketswe le ho hlalosetswa
138_0720 re o se a di
138_0721 ba ngodise sehlopheng sa bolo
138_0722 le se ke la nkella
138_0726 ha e sa le yo
138_0727 church turing thesis
138_0728 asian financial crisis
138_0730 studio le setsha sa transmishene
138_0733 ba sa ngodisang ha ba
138_0734 ntshetsopele ya molao wa motheo
138_0736 soviet red army
138_0737 early church fathers
138_0739 boele o fapose le ho
138_0740 la re ke le nyaye
138_0743 wa dulela ho rabaka tje
138_0744 he e ye e mmalehele
138_0745 berne convention berne convention ke
138_0746 le meho polo ho lekaneng
138_0747 metal gear solid
138_0748 se sa lekanngwang se ke
138_0749 ke thabele manyofonyo ao o
138_0750 ho ba o ba nehe
138_0751 ya deedsweb ka ha ho
138_0752 ke sehwa ke letswalo ha
138_0754 kope ho o fa setifikeiti
138_0755 north west company
138_0757 mosuwehlooho a ne a mema
138_0759 british armed forces
138_0763 ba di faetseng makgistrata a
138_0767 le ba ma komonisi le
138_0771 e phethahatswe le c nkela
138_0772 le tshwaneleho ya ho ba
138_0774 a be a hatise pasa
138_0775 sa lepoqo ha se kgutse
138_0776 o atlehe e le ka
138_0777 ne a ye a sadise
138_0778 se a retlile moletsane ka
138_0779 tu ka ho panya ha
138_0780 ba di je ba ke
138_0782 ho re o ne a
138_0783 ba tsheletseng ba thontshweng ke
138_0785 ne a sa itlwe ka
138_0786 ba nebasena boipuello o ne
138_0787 re o kgopo le ho
138_0788 se o fihletse qeto eo
138_0789 bonwang le ho ya ka
138_0790 wa bodumedi gospel o sa
138_0791 e ka hirisetsa khamphani ya
138_0792 le phumantso e ntlafetseng ya
138_0793 a le lemo tseleshome le
138_0794 e sebeletsang e ikaraballang ho
138_0796 ho ekets boikgathatso ba ho
138_0797 le ho nkelwa dikoloi ha
138_0798 o ntshofaditsweng a na le
138_0799 ho buuwang ka yna e
138_0801 o di tsebise ka kopano
138_0802 o qeta o be o
138_0803 sekete ya thelevishene e kwalehileng
138_0804 hangata ka ho nepahala le
138_0808 ke tsosa dibata masene ha
138_0809 le mane ho na le
138_0810 o e tlamella lekaleng o
138_0811 economic cooperation apec
138_0812 oriental orthodox churches
138_0813 ho ewp e be ba
138_0814 le ditswejane ho le mathisa
138_0815 mmutlanyana o ne a le
138_0816 dipatlisisomme a mo eletse ka
138_0817 a ne a ntseabua ka
138_0821 eo ka menahano e tiileng
138_0822 mafosi o be o tshehetse
138_0823 kotulo eo ba e behetsweng
138_0824 phousetara e shebehe e le
138_0825 di se di kgethilwe di
138_0826 dikobo le ho mo busetsa
138_0828 human development index
138_0829 pope benedict
138_0830 tharo a b le c
138_0831 taba ya ho fana ka
138_0832 ao o sitwang ho a
138_0835 ba na le mamello mamello
138_0836 ya mo nyalang ha rakgadiae
138_0837 ya lokileng ho ya sa
138_0838 pusat statistik provisionally
138_0839 setereka sa maseterata wa pretoria
138_0840 ho a ka ba le
138_0841 le sa kgetheng mofo ho
138_0842 o a mmakatsa ha o
138_0843 e ne e le sephankgahadi
138_0844 ka ho re ho na
138_0848 wa di raha e sa
138_0849 o so ka o fetolelwa
138_0850 north atlantic ocean
138_0854 ba ke re o nkgumamele
138_0856 faatshe ba le mokatong o
138_0857 current account deficit
138_0859 diteboho ho metswalle le bomphato
138_0860 a e ka ballwang ho
138_0861 o kgabisa kamalente a mafubedu
138_0862 a ne a bonesitse a
138_0863 ho ka tshohlwa le ba
138_0864 ho ikana a se ke
138_0865 calcium le phosphorus e ka
138_0866 tieho ho ya ka balanse
138_0867 o na le ho se
138_0868 ya ho ingodisetsa ho vouta
138_0869 ho ruta le ho ithuta
138_0870 lefellwang ho the director general
138_0871 o ka tlohella ho mathakaka
138_0873 e ne e le morearea
138_0874 ho se ka ha qobellwa
138_0875 konteraka ba tlangwa ke ditumellano
138_0876 eo o e kgethileng o
138_0877 le ho ntshetsapele le ho
138_0880 o mo tshwantshisa le taemane
138_0881 kennedy space center
138_0884 o beilweng ho fa dipehelo
138_0885 ba ka utswa phahlo ya
138_0886 o ne a nyetse sethepu
138_0887 pampitshana eo e be se
138_0888 meaho meaho ya sehopotso le
138_0889 setefikeiti sa ho hlakolwa boingodisong
138_0891 a o shobile a o
138_0892 le mafumahadi le mmini o
138_0895 qetella o se o kopanetse
138_0896 hloboha ho mo hloboha ka
138_0897 le ha ho se na
138_0899 ho enfolopo ke ne ke
138_0900 nahanwa ho re e ka
138_0901 se hetse sa ba sa
138_0903 ho fanyehwa le ho kgaotswa
138_0904 o ka nkaraba ha ke
138_0907 ka ho qoholleha kahong ya
138_0908 dikgoto disenyi ho ata ka
138_0909 e re ke mo letele
138_0910 western classical music
138_0911 ha ke a tlela ho
138_0912 e se e le dikgutsana
138_0913 ya databeise e ka sebediswa
138_0914 o tlabikelwa ke tshotleho o
138_0915 e ka nnang ya unwa
138_0916 di etetseng ha le ne
138_0917 osama bin laden
138_0918 african development community
138_0919 hodimohadi ba boprofeshenale nonoso ya
138_0922 natural law party
138_0924 chinese civil war
138_0925 ba monka ka bethe eo
138_0926 kgutlele ho sera sa ka
138_0930 e latetswe le ha e
138_0932 areng o ja monakaladi wa
138_0933 ho ahlola ka ho hirwa
138_0934 e ne e mo fa
138_0935 ka sejatlhapi ba re ke
138_0936 ntlhola ha o se o
138_0937 martin luther king
138_0939 e susumeditswe ke ho se
138_0941 wakebolelwa e be o hobosa
138_0942 ka mokgwa o sa tlwaelehang
138_0943 ho iphedisa ka ha ba
138_0945 ho ke ke ha qojwa
138_0947 be o na le ho
138_0948 royal air force
138_0949 ne e le le ntshang
138_0951 motla o tutswe wa jeremane
138_0952 o be o sehelle mahlalosi
138_0953 accident statistical system samrass o
138_0954 e qethohile edumella matswejana ho
138_0955 o se a le ho
138_0956 bolokolohi le ho ikutlwahatsa ka
138_0957 bohlokwahadi ya ho sebeletswa ka
138_0958 ya ka ha e a
138_0959 le tshwerweng ha e le
138_0960 dikwari le ho ripitlwa ha
138_0961 o mobe o tletseng lehloyo
138_0962 ho ya kaboholo ieboleng ba
138_0965 ke ho re ba bojwalane
138_0966 professional baseball teams
138_0967 fact date june
138_0968 bokantle ba makasine o arabe
138_0969 motlanyatsi ya ka sehlohong wa
138_0970 ho tuba ha eo a
138_0971 e hlotsa e mo tseiditse
138_0972 ha ho se ho kgethuwe
138_0973 ka hitara ka ha e
138_0974 c felehetswe ke tjheletana ya
138_0975 bo fihlellwang habobebe ka ho
138_0976 ha re ka qhella ka
138_0977 ke palesa ha e le
138_0978 kokoroha a saretswe ha mmuelli
138_0979 o ne a sa itlwe
138_0980 ba sehopotso pelong ya ka
138_0981 e qadile ho o tshwenya
138_0983 ke sehlopha sa baprofeshenale ba
138_0984 ba sekgowa ke ha a
138_0986 ha ho le hobe o
138_0989 le phonyohile ka soba la
138_0990 ya diphetolelo le tlhaolo ya
138_0991 e tiiseditsweng ya tokomane ya
138_0992 states environmental protection
138_0993 cold war era
138_0994 ke ne ke sa maketse
138_0995 o se o lahlehetswe ke
138_0996 e ne e le modumedi
138_0997 a lohilweng ka therisano le
138_0998 ba kwetliswang le bakwetlisi bakwetlisi
138_0999 boholoholo ho ne ho na
138_1000 sa ba utullang dipatilweng ho
138_1001 ba di embryo di ova
138_1002 ke toloketswe le ho hlalosetswa
138_1004 re o se a di
138_1007 le ka la re arohanyang
138_1008 sa itekanelang ba tsofetseng le
138_1009 ho ka ba jwang ha
138_1010 ha e sa le yo
138_1011 church turing thesis
138_1012 asian financial crisis
138_1014 studio le setsha sa transmishene
138_1015 di se di le mothating
138_1016 a se tlohellwe a ntshe
138_1018 ntshetsopele ya molao wa motheo
138_1019 o mogn oo ba o
138_1020 soviet red army
138_1021 early church fathers
138_1023 boele o fapose le ho
138_1024 la re ke le nyaye
138_1025 ha e a ka ya
138_1026 re ke mo hloile hampe
138_1027 wa dulela ho rabaka tje
138_1028 he e ye e mmalehele
138_1029 berne convention berne convention ke
138_1030 le meho polo ho lekaneng
138_1031 metal gear solid
138_1032 se sa lekanngwang se ke
138_1033 di mesana ba ka o
138_1035 ke thabele manyofonyo ao o
138_1036 ho ba o ba nehe
138_1037 ya deedsweb ka ha ho
138_1038 ke sehwa ke letswalo ha
138_1040 ho tliswa ke tshebedisanommoho e
138_1041 le lefatsheng la komello mahwatateng
138_1042 kope ho o fa setifikeiti
138_1043 north west company
138_1044 la ho hlahloba la rebate
138_1045 mosuwehlooho a ne a mema
138_1046 ha ke ne ke re
138_1048 e le bahlodi e le
138_1050 ha ke a re ke
138_1051 ba di faetseng makgistrata a
138_1052 hlomamisa dikomiti ho ya ka
138_1054 palesa o mo sheba ka
138_1055 le ba ma komonisi le
138_1056 le ho ja re sa
138_1057 a kopanang le sekweta se
138_1058 se a thusana se arolelana
138_1059 e phethahatswe le c nkela
138_1060 le tshwaneleho ya ho ba
138_1061 ne di sa susumeletswa ke
138_1062 ka mawala a hokahantsweng a
138_1063 a be a hatise pasa
138_1065 konsarete ya mmuni ya ho
138_1066 molaodi wa mafa ya kgethehileng
138_1068 le kakano ya fora dipapatso
138_1069 ke ya ba le ditlhapiso
138_1070 bavouti ba ingodisang ba ka
138_1071 kolobo kase ya lebejana le
138_1072 nnyeo ba ne ba shwele
138_1073 ho sutha mokgweng wa thekolohelo
138_1074 ha a re ha ho
138_1075 ka ha ho tekilwe tlhophisong
138_1076 le ke ke la o
138_1077 winter olympic games
138_1078 ho ba e ananelwe ke
138_1079 close air support
138_1080 ngodiso di a latelwa ngodiso
138_1081 internet engineering task
138_1082 ha ke sa itlhokomele ke
138_1084 e re tataisang menahanong le
138_1085 e ba le boikarabalo bo
138_1086 eo barutehi ba itshwereng ka
138_1087 a se ke a ota
138_1088 southern baptist convention
138_1090 le metsoe mene ho thlola
138_1091 leholo le tiileng la kaho
138_1092 ho na le kopanyetso ya
138_1093 se be eo mmate wa
138_1094 ya ho pholosa ka ho
138_1095 ditopo a ke ke a
138_1097 canadian pacific railway
138_1098 ke ne ke sa ruteha
138_1099 ho hlatswa ditholwana le meroho
138_1100 mofubedu o phatsimang le ha
138_1101 alexander graham bell
138_1102 e sa otlolohang polokehong ya
138_1103 ke ha a le haufiufi
138_1104 polish lithuanian commonwealth
138_1105 ruuwa le ho laolwa ka
138_1106 e se e kgutletse ka
138_1107 o ne a kgannwa ke
138_1108 maidiidi a mo lesa a
138_1110 le ntshehetse ha e le
138_1111 ya ditlhopheho le ha ho
138_1112 mo rekela watjhe ha a
138_1113 ya boeletsi re motjheng wa
138_1114 le tjhabile le monatjana ho
138_1116 sa dumele ho ka fefolwa
138_1117 fihlellwang ho e na le
138_1118 ba se ba e kolla
138_1119 ntlhahetseng ha se tabatabelo ya
138_1120 best adapted screenplay
138_1121 poho ya mmofu e kgonya
138_1122 narrow gauge railway
138_1123 ha se monwana ha le
138_1124 kansas city royals
138_1125 ha ke ne ke se
138_1126 swine flu e se ke
138_1128 ho ya ditameneng shu ha
138_1129 a sa kgarumemmakarabelo motsotsong oo
138_1130 le mmamoruti ya mmoledi ke
138_1132 ka ho ya moketjaneng ono
138_1133 le ha ho qaqisitswe ka
138_1135 ya tsitsinngwa ke diheshana bomafisa
138_1136 mekotla ya mashala ka veneng
138_1137 na le boipelaetso bo isteng
138_1138 d ho hokahanya le ho
138_1139 etshweu e lebanta le letsho
138_1142 di ka qhalakanngwa le di
138_1146 wena moetapele wa setjhaba le
138_1147 kgele a tsoha a tlola
138_1149 eo ho ne ho sa
138_1150 ho bapiswa le ho a
138_1151 ha ba le phokotseho e
138_1152 le ho re kumela ka
138_1154 senyehileng e senya thaere ya
138_1155 e dumelletswe ho ka eketsa
138_1156 ha re ne re ilo
138_1159 o ne a ikete ho
138_1160 ho batjhana ba ka ba
138_1164 international criminal court
138_1165 nyamela ho ba ntidi ha
138_1166 hee ke re o nkgitlile
138_1167 mmetla o kgola o e
138_1168 o lakatsa ho tsebiswa le
138_1169 united states coast
138_1173 dipuo ho phatlalatsa le ho
138_1174 kgauhelo e ne e le
138_1175 israeli prime minister
139_0001 e le e mahaha etshweu
139_0002 ho ho ne ho puruma
139_0003 tshehetsang di bopilwe ka tsela
139_0006 a ne a mmuisa ka
139_0007 kgwehlise mangole e le ka
139_0008 tsamayang o na le dibato
139_0009 tseetsahetseng kgalekgalesetjhabengseo di qoqwang hosona
139_0012 ka ha ho na le
139_0013 molora wa setopo se tjhesitsweng
139_0014 distinguished service medal
139_0015 amohela temoho ya tshepahalo e
139_0016 ka moya o motle ho
139_0018 wa sekete ya thelevishene e
139_0019 o se o phethetswe hajwale
139_0020 wa setereke o na le
139_0021 re ha a sa o
139_0022 ke tabatabelo ya ka ho
139_0023 letlalo le bohehe le le
139_0024 theohela ha e le ho
139_0025 di se di le mafekefeke
139_0026 representative democratic republic
139_0027 e sa ntsaneng e thuthuha
139_0028 hono ho ke ke ha
139_0029 e se ka thatathata ba
139_0030 e le tshweu ha a
139_0031 ba sa kgathatseng ie ba
139_0032 ke ne ke lala ke
139_0033 ne ke le lekgatheng la
139_0035 nations security council
139_0036 a sa ba fe ditekete
139_0037 mtv video music
139_0038 ho se be le dimamello
139_0039 e sa le ka meso
139_0040 ya di deeds e ya
139_0042 ha a se a kgotsofetse
139_0043 molwantshi ho ka ba le
139_0044 ba rerile ho o etsetsa
139_0045 a lebane le pheletso ya
139_0046 world wildlife fund
139_0047 ke mo tsebang ke re
139_0048 ho sa thabelwe e be
139_0049 oo e ne e le
139_0050 hobane e ne e se
139_0051 eo a qalang ho kopana
139_0053 ba ka ba se ba
139_0054 ke oka ditlhabela ha o
139_0055 na mariki le mariki a
139_0057 ka lehlohonolo la moteaphala o
139_0058 dipapadi le boikgathollo boemong ba
139_0059 programming languages created
139_0061 ja ha a ne a
139_0062 ka tonnoro e bulehelang ka
139_0063 air force reserve
139_0064 keboitshepo ba ipone ba se
139_0065 le ne le sa nyala
139_0066 sir francis drake
139_0067 mo tlwaeditse o se a
139_0068 na le akhaonte ya banka
139_0069 kgosokgoso o ne a shapilwe
139_0070 mekwalaba o ne o kgethwe
139_0072 bolayabathobabangata haholonakongya paseka le keresemese
139_0073 tatolo ha a ka a
139_0074 ne di ye di kgannele
139_0075 phatlaladitswe a tjhonne a ka
139_0076 ha a na le ba
139_0080 malome o se a bo
139_0083 le mosehlana a sotse ha
139_0085 ho na le batho ba
139_0086 ratelereko o ne a re
139_0088 tsietsi ba ne ba aparetswe
139_0090 ka haramotse wa thekong mmathabo
139_0091 old church slavonic
139_0094 ya ho ya tsoma marabe
139_0095 ka ha ho hlokwa ke
139_0096 ho di kwenya e be
139_0097 le ho hlompha ka sewelo
139_0098 se se se o natefela
139_0099 o ka e tsamaisang ka
139_0100 di a phethiswa ho be
139_0101 ne o a ithutelang ha
139_0103 e tataiswa ke dipheo le
139_0105 a ne a tjheswa mehlape
139_0106 ka ha di le ka
139_0107 re be le tjhebelo ya
139_0108 kahona o mmamedisise ke o
139_0109 setsho e bonesa ka kganya
139_0110 sa id sa mmala o
139_0112 ne ke sa bolokeha le
139_0113 pheme ho se be le
139_0114 batshehetsi ba a bina ba
139_0115 mafatsheng a bokatoliki kereke e
139_0117 a batle ho utlwa letho
139_0118 e sa namme eo ke
139_0119 bo ke ke ba ba
139_0120 a tsamaelana le boiphihlelo ba
139_0121 ba tjhatsi ba a di
139_0122 ha ho arabelwa pampiri ya
139_0123 hlweke ho se be le
139_0124 united states began
139_0126 o kgatisoleng e ka latolwa
139_0127 ba a baketsweng ke ho
139_0128 federal communications commission
139_0129 australian rules football
139_0133 a se a sa ya
139_0135 polasing ha e fapohe popehong
139_0137 o ne a sa rate
139_0138 ho thehwe puso e ntjha
139_0140 ana ao a a entseng
139_0141 ikethang wa ho kgotlalletsa ba
139_0143 ho ngaka e laolang meriana
139_0144 ne a nkehile mathakeng ao
139_0147 bohlabaphio ya rivonia di be
139_0152 ka nnete ha ke kgolwe
139_0153 ya heno ya sephethephethe e
139_0154 systems act le integrated sustainable
139_0157 di ne di mathile mantswenga
139_0158 porofinsi yeo ha ripoto eo
139_0162 botsofadi bo jesa molala wa
139_0164 o tennweng ke kedibone e
139_0165 nyahamisa e a iphetapheta e
139_0168 re ke ke ra ikgotsofatsa
139_0171 ha ke tshohe moru o
139_0172 ya diabo e se e
139_0173 asian development bank
139_0175 di hokahane ka ho hlaka
139_0178 eastern european countries
139_0179 united nations convention
139_0180 na le kganano le ho
139_0181 e ne e le rakgadia
139_0182 lefisa bokae ha e le
139_0183 local government act
139_0185 ho e na le ho
139_0188 bukeng le ha e le
139_0189 ba matswadisa hlobolang mese eo
139_0192 ya lokileng ho ya sa
139_0193 pusat statistik provisionally
139_0194 setereka sa maseterata wa pretoria
139_0196 le sa kgetheng mofo ho
139_0198 e ne e le sephankgahadi
139_0199 ka ho re ho na
139_0200 tshwaretseng sa boto se sa
139_0203 wa di raha e sa
139_0204 o so ka o fetolelwa
139_0205 north atlantic ocean
139_0206 o ka re sethothokisi se
139_0207 di re ke sonasesosa sa
139_0208 final resting place
139_0209 ba ke re o nkgumamele
139_0212 current account deficit
139_0214 diteboho ho metswalle le bomphato
139_0219 bomenemene le ho hokahana ka
139_0221 ba dikgotswana ba se ba
139_0222 o ke ke wa ba
139_0223 o lahla dithatho e be
139_0225 matjhabeng e ye e be
139_0227 e theohang panama o inyanyaditse
139_0230 nyaya la koloba ditletlebo di
139_0231 ha e le ka sekotwana
139_0233 lkhansele ya aforikaborwa ya diporofeshene
139_0234 peo eo a e jetseng
139_0239 soviet socialist republic
139_0242 ha o sa itlhokomele o
139_0243 a radieishene yuraniamo le thoriamo
139_0244 new york stock
139_0250 dumellang baabi ba batjha ba
139_0252 ne a felehetswa ho ya
139_0253 mmadimpho siko ke re ho
139_0256 ya ba ya saenelwa ke
139_0257 a o hlwang setha o
139_0258 zermelo fraenkel set
139_0259 ya boiphediso eo ho ka
139_0260 ha re di bolellwe re
139_0263 ba e tjhaelwe monwang ke
139_0264 ke ya tefello e tobileng
139_0267 ye di tlaleheng ho ya
139_0268 ba marena a engelane ditsebengho
139_0270 e le matahwa a mahlena
139_0271 modern operating systems
139_0275 e bapetsweng ke moporesidente wa
139_0276 ya ka sehloohong wa phethahatso
139_0278 mohau a nanabela lebokoso le
139_0279 la nkenya ditabeng bana ba
139_0282 condensed matter physics
139_0285 e be badumedi ba lahle
139_0286 le dibohodi di kgothaletswa ho
139_0288 e ka hlabeha qetello ya
139_0290 ba tshwasehe kutlwisisong e mopatisane
139_0291 be o itatola bosehla ha
139_0294 ba rutwe le ho rupelwa
139_0295 khamphaneng ya marematlou holdings ba
139_0296 a se ke a ho
139_0297 eo wa letekatse ha a
139_0298 early middle ages
139_0299 o se a mo qalletse
139_0302 ne ba itjella bolokwe ba
139_0303 ku tlwisiso e kgabane ya
139_0304 demokerasing e kgonang ho ipeha
139_0305 ya mobetano e ne e
139_0307 a re o mo ja
139_0309 ha ba qhekelle ha ba
139_0311 mokgutshwanyane o mo tsalang disanthao
139_0312 provenseng eo ha ho se
139_0313 e le le etelletseng tlhaselo
139_0315 ha o ka wa mpha
139_0316 na le boikarabelo ba ho
139_0320 o e fetolele ho lekgathe
139_0321 tshekatsheko ya hae e paka
139_0326 hard disk drives
139_0327 le leamanyi o be o
139_0330 ho se ho le tjena
139_0331 union member states
139_0332 java virtual machine
139_0333 ho underwriter ho ya ka
139_0334 ho thuswa ho netefatsa ntlafatso
139_0335 ba le utswe ba le
139_0337 indian national congress
139_0340 e tswalang ho foforeha ha
139_0345 di ka o hapisa moqhaka
139_0347 ba a ruteha le ka
139_0348 ikemisetse ho reupella le ho
139_0349 re le baetapele re a
139_0350 baromuwa ba ncop ba ka
139_0353 grammy award winners
139_0354 o tle o se ka
139_0355 ba hlophisang dimmapa le mahlasedinyana
139_0356 o be o se o
139_0357 tlhokomeloi ya boalosi lehaeng la
139_0360 o ne aikemiseditse ho ya
139_0361 loreal age perfect ke ditlolo
139_0362 bukeng ya ac jordan e
139_0365 la peete le ne le
139_0366 ba na le lebenkele le
139_0367 efeng ke ha baqolotsi ba
139_0368 ho ba la tahlehelo ya
139_0369 o ne a na ie
139_0370 o re ke dikwata dibusenga
139_0371 married couples living
139_0372 ho fokollwa ke boitswaro ho
139_0373 ha ke le mokaana ke
139_0375 butswe le ho butswa ke
139_0376 hlokomedisa ka bobe le bokgopo
139_0379 internal combustion engines
139_0381 national science foundation
139_0382 ebesela a ntjhafale e be
139_0383 sa ka e le semenomasweu
139_0384 ba le nate boltong e
139_0385 ka ho re o se
139_0388 ya ho theolelwa le ho
139_0389 human rights activists
139_0391 barata ho nkeletsa ho phahamisetsa
139_0392 seemo se selelele ya raohileng
139_0393 se ke wa tshaba ho
139_0394 moscow state university
139_0395 itjella manna le ikgethela wa
139_0397 e sebedisehang e amahngwa le
139_0399 ho thujwa ho ba dikotwana
139_0401 soma ho mo qosa le
139_0402 sa bosuwehlooho ke se tjhesang
139_0403 a le holena la meutlwa
139_0407 e kalo ka r e
139_0408 valence bond theory
139_0409 le lequlwana la dinokwane le
139_0410 poello ha o beeleditse ho
139_0412 ho ya ka dipolotiki basebedisani
139_0416 hlanya ho ne ho batleha
139_0419 qhekella mofumahadi wa morena ramoroko
139_0421 la ho potlaka ho ka
139_0423 ke bosotho nthwese kola sa
139_0424 le o sa kgeseng e
139_0426 e se kgeme le pehelo
139_0428 ne e fifaditswe ke mobu
139_0429 se e le lesupi ho
139_0431 ho lefela ba porofeshene ya
139_0433 castel sant angelo
139_0435 beleha le ho adoptha ho
139_0437 la tiiso ka e meile
139_0438 di tshwauwe pampiring eo di
139_0443 ho ba moruti wa kereke
139_0444 qolla leakaretsi o be o
139_0445 ka ba ke hanana le
139_0446 ya ho ba le dikimi
139_0447 qotsitswe le ho lokiswa ho
139_0448 se qaqolohane ha se a
139_0449 ye a re o ka
139_0450 la ka ho ipapisitswe le
139_0451 elected prime minister
139_0453 medieval islamic world
139_0457 ho itlhahisa ka kutlwelobohloko ho
139_0458 setefikeiti sa boingodiso se ntshwa
139_0460 e tswang ho nac ho
139_0462 sa robben ha a ka
139_0463 sa kgotsofalang la marenana le
139_0464 ha o ka wa hlala
139_0466 a shwa ke a ikepela
139_0469 ya ba kgaoletsa ya tsholoha
139_0472 ya phano e behuweng e
139_0473 le yena o ne a
139_0477 chinese new year
139_0479 tikolo ya karolomoruo eo e
139_0480 ha e hate ka maro
139_0481 re kopantse se fella hona
139_0483 ba hatellwe ka ho tingwa
139_0486 e sa le a nyalwa
139_0487 american film actors
139_0488 dipale le ha e le
139_0489 wa emalahleni mof malatjie o
139_0495 e nngweentlee mo susumeleditse ho
139_0496 ka tenwa ke ha di
139_0497 le bojuta le bokreste re
139_0499 bapiswe le tshupamolato eo ho
139_0501 different ethnic groups
139_0502 ho na le matshosetsi a
139_0503 le ha ho nnile ha
139_0504 a lora a haola meruemetala
139_0505 ka ha e ne e
139_0506 roka le ke motjheso walehlabula
139_0507 lero la morara le monyang
139_0509 eo o ne a lahlile
139_0511 ya mmileng e ne e
139_0513 a ke o re phetele
139_0515 a ho tshwaetsa ho phatlalletseng
139_0516 ba ath party
139_0517 e re ke lebe ka
139_0518 british prime minister
139_0520 ha e sa le tjhatsi
139_0523 green coffee beans
139_0524 ho na le ho honyane
139_0525 la diphuputso la temo le
139_0527 theoha koloing ya baeti seteishening
139_0529 e monyane bashemane le banana
139_0530 ho na le sefifi sa
139_0531 lekotsi e kieng ya etshahala
139_0532 world s largest
139_0534 ha e le ho ya
139_0535 wakgahlwa ke lefiso la metsaneng
139_0536 dihlongwapele mantsweng ao o a
139_0537 mmankepe bo totiswa ke ho
139_0540 mosotho o ye a re
139_0541 a ka lesaka ha ke
139_0543 wa ho tsebisa baahi ka
139_0544 ba lehano e sa kgoneheng
139_0547 ya diahi ho nhbrc le
139_0550 bo nahala a na le
139_0552 ebe ha o dumellane le
139_0553 ba ka ke ne ke
139_0556 re ho a be ho
139_0558 be a qetelle a sa
139_0562 ke re ho ye ho
139_0565 ho a tlama ho tlatsa
139_0568 ba sa tswafe ho e
139_0569 la nale a ke o
139_0575 qha eo re ka mo
139_0580 shebe e be o seha
139_0582 lemang di a tjheha di
139_0584 be leholo o se o
139_0585 le ha le ne le
139_0590 e bontshitse bophahamo bo sa
139_0593 mathomo e ne e se
139_0595 e so ka ba o
139_0599 hlomi o ne a bolelle
139_0601 wa be o se o
139_0602 le ho se tsejwe ha
139_0603 di ya ka therifi ho
139_0605 ba ne ba se ba
139_0606 hehehe ho re ho na
139_0607 se busetseng ho nkwa ha
139_0609 ho eo ho itsweng ho
139_0610 ke nyatsana le ho ikwahlahela
139_0611 sirelletsa o wa ka ke
139_0615 re hotse tlasayonao se ipateka
139_0617 ka wa mo palla ka
139_0618 ya se ke ya mo
139_0619 ba morabona e se e
139_0622 o ne a wetswe ke
139_0626 le ya mookodi ka hohle
139_0627 e ntsee matlafala ha se
139_0628 na ho ba le boitelo
139_0629 ka ho qholotswa le ho
139_0630 ya thutapuo ka bokgoni bo
139_0631 united states government
139_0633 mothusi wa sadc eo e
139_0635 boya ho ne ho tletse
139_0636 tjhonneng ha a ka a
139_0637 keleng qetelong le dite maneng
139_0638 e atiswa ke ho se
139_0639 ya mokganni wa borutehi bo
139_0640 a mo thiba a ba
139_0642 a mo shapileng hamper ka
139_0643 ya ditswantle ya bongaka ba
139_0644 bo omeletseng bo meqilweng ka
139_0645 india le akanang le la
139_0646 ho nthusa ha ke le
139_0647 ngotsweng a sebetsa ka boyena
139_0648 monyetleng wa ho hahlamelwa ke
139_0649 ho nehalana a hlokometse ho
139_0650 khomeshenara ya dikanao e na
139_0651 di itshetlehile tshebedisong le tlhalosong
139_0652 balebedi ba traste khampani balaodi
139_0653 e kgannwang ke stjhaba e
139_0654 o se a itokiseditse ho
139_0655 diphoqo ha re ne re
139_0656 ho tu ha ho sa
139_0657 makgulong ka ho ya ka
139_0658 java programming language
139_0659 a mmalwa ho ya dibekeng
139_0660 o ne o ntlatseditse marata
139_0661 needs ya maslow maslow o
139_0663 ho be le poelano le
139_0664 ke wa be o se
139_0665 o ne o nahanneng ha
139_0666 e kgwehlise mangole e le
139_0668 columbia university alumni
139_0669 ka ho lekana ha maloko
139_0670 kgathatseha ho ya ka dipalo
139_0671 o fe resiti e pakang
139_0672 eastern orthodox saints
139_0673 makgerike le maroma ya bopelokutlwelo
139_0674 technical adviser ho ka diehisa
139_0675 ne e se bo jesang
139_0676 ya ba basweu le ho
139_0677 ho shatile ho nyaretse ka
139_0678 be le yunifomo eo a
139_0679 a ba a bolella motswalle
139_0680 my wellness ya webosaete ya
139_0681 ho makgaolakgang ba na le
139_0682 kakanyo ya ditshenyehelo le papiso
139_0683 ka lenyele ke ne ke
139_0685 ya ka e nyopiswa ke
139_0687 ha kwanadi ne di le
139_0688 a ho ba la ka
139_0689 e kgomaretsang le e kwahelang
139_0690 ba be ba hloye ba
139_0691 maburu a kgonne ho qobella
139_0692 o tshwarehile ha o le
139_0693 le c di na le
139_0694 fetelepele prudence e ne e
139_0695 leeto la ho ya amerika
139_0696 a bitsang le ho tebela
139_0697 ho na le phapano dipakeng
139_0698 states census bureau
139_0699 old east norse
139_0700 hofetisisa e ne e le
139_0701 la korota hannyane ha a
139_0702 ha e le ho re
139_0704 o ne a sitwa ho
139_0705 voutela boramotse metseng ya borona
139_0706 e re e a ba
139_0707 e sa le a kgolwa
139_0708 articles lacking sources
139_0710 le qetelo e sa phethahalang
139_0711 behilwe ka mosing nakong e
139_0712 tema ha e bontshe kgokahano
139_0714 ba hlabe modidietsane ba re
139_0715 a ne a sa bonesa
139_0716 be ke phutha mehaswana ya
139_0718 a phytosanitary a setswantle a
139_0719 rekoto e kotjwang ke rekoto
139_0720 ha e lemoo e le
139_0721 phumano patlisiso qoso le ho
139_0722 afc championship game
139_0723 kgalase a re o kga
139_0724 se ke wa tshwenyeha ka
139_0725 basa e lwanela e ne
139_0729 a mabe ho diphaka ho
139_0730 a ba lekgonono ho ya
139_0731 new york yankees
139_0732 kolofo ditebele ditantshe netbolo le
139_0733 ya tlatsetso ya bobedi ho
139_0734 ho re hlobaetsa boroko le
139_0736 se ne se ketekela lebaleng
139_0737 sa bokone nguni le sa
139_0738 la ho se sitise le
139_0740 ho kenyelletsa kgatiso ya dibuka
139_0743 re utlwana e se e
139_0744 ya se kgone ho thusa
139_0745 mafenethe o ne a lokollwe
139_0746 ya dihuweng o hlotswe o
139_0747 le la lebese la letswele
139_0748 ho hlwauwang le ho halaletsa
139_0750 se phethetsweng se phethetsweng se
139_0751 moyeng ke tlallane ke ne
139_0752 tsohletseo o di laelwang ka
139_0753 ba mo siile o hlolohetse
139_0754 le mengwe le a imema
139_0755 sehlooho ikamahanya le ba reretsweng
139_0757 eo diau o ne a
139_0760 tshupiso ya paye e sa
139_0761 diyuniti teeo o di rekileng
139_0762 ke ne ke ya ka
139_0763 b c d e mekgabisopuo
139_0765 e sa phethahalang ya botoloki
139_0766 egepeta morocco ghana le london
139_0767 original
139_0768 ke kgale ke o kgalema
139_0769 bakganni le beng ba ditekesi
139_0771 mapolesa o ne a se
139_0772 mekgwa e mengata ya ho
139_0774 ho sala ho dubehile ho
139_0775 o busang o na le
139_0777 ya a le ya b
139_0778 ya lebatowabrigitte shabalala ha a
139_0780 eo ba e abetsweng le
139_0781 momonela ha a ratana le
139_0782 tswileng tseleng o ne a
139_0783 wa praevete di ne di
139_0785 le tlhaselo ya malwetse le
139_0786 functional programming languages
139_0789 bo tlalehwa ka thelefounu le
139_0790 ye ba re ha a
139_0791 dental caries a tlwaehile ho
139_0792 ba le tjhehile e ne
139_0793 e ma hareng ya ditlhokeho
139_0794 pauli exclusion principle
139_0795 hana borikgwe bo ne bo
139_0797 mamelwang le ho bohuwa hong
139_0798 thousand years ago
139_0799 ba imang e nyolohang kasekgahla
139_0800 ho boetse ho na le
139_0801 import permit e na le
139_0802 ya polatinamo ha ho na
139_0804 le ho ikotlolla se sa
139_0805 ngwanenwa wa ka e se
139_0806 science fiction author
139_0807 ho se ya e bohileng
139_0808 se ne se bakilwe ke
139_0809 north atlantic treaty
139_0810 ho utlwahala melodi ya dinonyana
139_0811 ngwanana eo a mo tlapuretse
139_0813 na le lenyatso le ho
139_0814 ka ho re ha e
139_0816 tliswang ke dikgaello mekgweng ya
139_0817 ba ka fetisetsa dikokwanahloko ho
139_0818 sexually transmitted diseases
139_0819 le diketapele le kgutsufatso ya
139_0820 se tshwanelehe ha a bapisehe
139_0821 di se dikeleketla marameng a
139_0822 ho hlompheha le ho se
139_0823 mmohole burundi comoros sudan haolo
139_0824 ho hlokomela le ho kgetha
139_0825 a se a ba buletse
139_0826 wa lbs ka ha lbs
139_0827 e le sesebediswa sa ho
139_0828 a ka a se kgopisehe
139_0829 lebohisa di springbok ka ho
139_0830 ikadimeng meelelo e mengata ho
139_0831 mowakgotla ha a tsekiswe o
139_0832 difela di ne di qatjwa
139_0833 ha o e rekisa e
139_0834 leqepheng la ditaelo le ka
139_0835 ka di apostille certificate ke
139_0836 mo rolela kgaebane e le
139_0837 se e le mobung o
139_0838 materiki e ne e le
139_0839 o ne a hlenne melomo
139_0841 e le e mahaha etshweu
139_0842 ho ho ne ho puruma
139_0843 tshehetsang di bopilwe ka tsela
139_0847 kgwehlise mangole e le ka
139_0849 tseetsahetseng kgalekgalesetjhabengseo di qoqwang hosona
139_0851 ya ditshoso ya ditshokelo le
139_0852 ka ha ho na le
139_0854 distinguished service medal
139_0855 amohela temoho ya tshepahalo e
139_0857 ba ha bo matsohong a
139_0858 wa sekete ya thelevishene e
139_0859 o se o phethetswe hajwale
139_0863 letlalo le bohehe le le
139_0868 hono ho ke ke ha
139_0870 e le tshweu ha a
139_0871 ba sa kgathatseng ie ba
139_0873 ne ke le lekgatheng la
139_0874 o mathela fensetereng e shebaneng
139_0875 nations security council
139_0876 a sa ba fe ditekete
139_0877 mtv video music
139_0880 ya di deeds e ya
139_0881 bulehileng ya sa keneng dintweng
139_0882 e le maotomane maemomg a
139_0883 ha a se a kgotsofetse
139_0884 molwantshi ho ka ba le
139_0885 ba rerile ho o etsetsa
139_0887 world wildlife fund
139_0889 ho sa thabelwe e be
139_0890 oo e ne e le
139_0891 hobane e ne e se
139_0892 eo a qalang ho kopana
139_0893 ho rapalla le ho lopalla
139_0894 ba ka ba se ba
139_0895 ke oka ditlhabela ha o
139_0897 the wrath of the ancestors
139_0898 ka lehlohonolo la moteaphala o
139_0899 dipapadi le boikgathollo boemong ba
139_0900 programming languages created
139_0901 ya bodulo le ya mosebetsing
139_0902 ja ha a ne a
139_0903 ka tonnoro e bulehelang ka
139_0904 ditho ya inthanete member online
139_0907 ho thehilwe ho arolwa ha
139_0909 qetelletse a se a sa
139_0910 cell lung carcinoma
139_0911 ya sedulwamatswapong ha ho le
140_0001 ha e le kajeno lena
140_0005 e le wa dijareteng difemengkwana
140_0008 a radieishene yuraniamo le thoriamo
140_0011 ya ka ngodiswang e le
140_0014 a ka bapiswang le a
140_0015 dumellang baabi ba batjha ba
140_0016 ne ke se na boikgethelo
140_0017 ne a felehetswa ho ya
140_0018 mmadimpho siko ke re ho
140_0019 fumanehang sebakeng se bapatswang di
140_0020 kganahatswa ke boitelo le ho
140_0022 a o hlwang setha o
140_0023 zermelo fraenkel set
140_0024 ya boiphediso eo ho ka
140_0025 ha re di bolellwe re
140_0026 sa ngodisang ha ba a
140_0027 e ahang e buang ka
140_0029 ke ya tefello e tobileng
140_0032 ye di tlaleheng ho ya
140_0033 ba marena a engelane ditsebengho
140_0034 ho phethahala ho ya ka
140_0035 e le matahwa a mahlena
140_0036 modern operating systems
140_0037 ya ho ya ho e
140_0039 ne e na le ditempe
140_0041 ya ka sehloohong wa phethahatso
140_0042 moso ke se iphumane ke
140_0043 mohau a nanabela lebokoso le
140_0044 la nkenya ditabeng bana ba
140_0046 mmakarabelo o ne a tobane
140_0047 condensed matter physics
140_0048 leba mophatong le ho bolotswa
140_0050 e be badumedi ba lahle
140_0051 le dibohodi di kgothaletswa ho
140_0052 e ne e sa re
140_0055 ba tshwasehe kutlwisisong e mopatisane
140_0057 hatisitsweng setlankaneng sa depositiseo ba
140_0059 ba rutwe le ho rupelwa
140_0060 khamphaneng ya marematlou holdings ba
140_0061 a se ke a ho
140_0063 early middle ages
140_0065 o ka itahlelang lemeneng la
140_0066 d ho ikopanya le difedereishene
140_0067 ne ba itjella bolokwe ba
140_0068 ku tlwisiso e kgabane ya
140_0069 demokerasing e kgonang ho ipeha
140_0072 a re o mo ja
140_0073 lenaneo la ho pepa le
140_0075 ke ha ba nwabeleditse ba
140_0076 mokgutshwanyane o mo tsalang disanthao
140_0077 provenseng eo ha ho se
140_0078 e le le etelletseng tlhaselo
140_0079 moelelo sekaseka le ho hlalosa
140_0080 ha o ka wa mpha
140_0081 na le boikarabelo ba ho
140_0082 states presidential candidates
140_0084 o se a theohile a
140_0085 o e fetolele ho lekgathe
140_0088 lofe a ka hlolehang ho
140_0089 paleng ee o ka re
140_0091 hard disk drives
140_0092 le leamanyi o be o
140_0095 ho se ho le tjena
140_0096 union member states
140_0097 java virtual machine
140_0098 ho underwriter ho ya ka
140_0099 ho thuswa ho netefatsa ntlafatso
140_0100 ba le utswe ba le
140_0102 indian national congress
140_0104 seo ke lekang ho se
140_0105 e tswalang ho foforeha ha
140_0106 le lekgetho le o phumaneho
140_0107 dikgamelwana manamane a bokollela bomma
140_0110 di ka o hapisa moqhaka
140_0112 ba a ruteha le ka
140_0113 ikemisetse ho reupella le ho
140_0115 baromuwa ba ncop ba ka
140_0118 grammy award winners
140_0120 ba hlophisang dimmapa le mahlasedinyana
140_0122 tlhokomeloi ya boalosi lehaeng la
140_0124 a itjhebetse mejo lemmethe wa
140_0125 o ne aikemiseditse ho ya
140_0126 loreal age perfect ke ditlolo
140_0127 bukeng ya ac jordan e
140_0128 ya thitelo ha mantshele motaung
140_0129 eo ka ho tshelwa ka
140_0130 la peete le ne le
140_0131 ba na le lebenkele le
140_0132 efeng ke ha baqolotsi ba
140_0133 ho ba la tahlehelo ya
140_0134 o ne a na ie
140_0135 o re ke dikwata dibusenga
140_0136 married couples living
140_0137 ho fokollwa ke boitswaro ho
140_0140 butswe le ho butswa ke
140_0141 hlokomedisa ka bobe le bokgopo
140_0142 ne e fupere le ho
140_0143 ho re ho be le
140_0144 internal combustion engines
140_0145 menahano ya ka ya farasa
140_0146 national science foundation
140_0147 ebesela a ntjhafale e be
140_0148 sa ka e le semenomasweu
140_0149 ba le nate boltong e
140_0150 ka ho re o se
140_0151 kotlo ya ho kgotha le
140_0152 o tjhele ya phediso ya
140_0153 ya ho theolelwa le ho
140_0154 human rights activists
140_0156 barata ho nkeletsa ho phahamisetsa
140_0158 se ke wa tshaba ho
140_0159 moscow state university
140_0160 itjella manna le ikgethela wa
140_0161 di ne di ke ke
140_0162 e sebedisehang e amahngwa le
140_0163 eo o hlolang o e
140_0164 ho thujwa ho ba dikotwana
140_0166 soma ho mo qosa le
140_0167 sa bosuwehlooho ke se tjhesang
140_0168 a le holena la meutlwa
140_0169 ba leloko le metswalle ho
140_0171 tsabosetjhaba le ysa profense di
140_0173 valence bond theory
140_0174 le lequlwana la dinokwane le
140_0177 ho ya ka dipolotiki basebedisani
140_0178 di e ja e le
140_0180 o hanana le ho re
140_0181 hlanya ho ne ho batleha
140_0182 na lepato le ka tswelang
140_0183 ho ba bahlopholli ba peo
140_0184 qhekella mofumahadi wa morena ramoroko
140_0185 e se be eo mmate
140_0186 la ho potlaka ho ka
140_0188 ke bosotho nthwese kola sa
140_0189 le o sa kgeseng e
140_0191 e se kgeme le pehelo
140_0192 baobab baobab or adonsonia digitata
140_0194 se e le lesupi ho
140_0195 se bo ikakgetse ka setotswana
140_0196 ho lefela ba porofeshene ya
140_0197 sa ratweng ha ke re
140_0198 castel sant angelo
140_0199 a robedi kamora polotso ho
140_0200 beleha le ho adoptha ho
140_0201 orutamekgwae loketsengbatho babaholo o be
140_0202 la tiiso ka e meile
140_0203 di tshwauwe pampiring eo di
140_0204 ho na le se ka
140_0205 itebohela ha ke sa ka
140_0206 ba matriki di se di
140_0207 di kititsa le ha a
140_0208 ho ba moruti wa kereke
140_0209 qolla leakaretsi o be o
140_0211 ya ho ba le dikimi
140_0212 qotsitswe le ho lokiswa ho
140_0213 se qaqolohane ha se a
140_0214 ye a re o ka
140_0216 elected prime minister
140_0217 e ka ba ao e
140_0218 medieval islamic world
140_0219 ho nahana le ho amohela
140_0220 ke ke a lema a
140_0222 ho itlhahisa ka kutlwelobohloko ho
140_0223 setefikeiti sa boingodiso se ntshwa
140_0224 yane ya mahadi eo e
140_0225 e tswang ho nac ho
140_0226 ba ka e ka sebedisetswa
140_0227 sa robben ha a ka
140_0228 sa kgotsofalang la marenana le
140_0229 ha o ka wa hlala
140_0230 le momahano le ho bona
140_0231 a shwa ke a ikepela
140_0232 ho nyahama ho ka bakwang
140_0233 le hlahe ho o fa
140_0234 ya ba kgaoletsa ya tsholoha
140_0235 ba pitsa e bele o
140_0236 o tsotehang e ekeditswe ke
140_0237 ya phano e behuweng e
140_0239 ha o le mokana o
140_0240 o inyadisa bahlankaneng ha a
140_0241 e ka makotikoting le e
140_0242 chinese new year
140_0243 ba kamoso o ya o
140_0244 tikolo ya karolomoruo eo e
140_0246 re kopantse se fella hona
140_0248 ba hatellwe ka ho tingwa
140_0249 ya mosuwehlooho ho ya utlwahantle
140_0251 e sa le a nyalwa
140_0252 american film actors
140_0253 dipale le ha e le
140_0255 mo rokang a be a
140_0257 a ha ho na le
140_0258 monnae a mo atametsa ho
140_0259 jwalojwalo le ha ho le
140_0260 e nngweentlee mo susumeleditse ho
140_0261 ka tenwa ke ha di
140_0263 le mekgatlong ya baserbetsi ho
140_0264 bapiswe le tshupamolato eo ho
140_0266 different ethnic groups
140_0268 le ha ho nnile ha
140_0269 a lora a haola meruemetala
140_0271 roka le ke motjheso walehlabula
140_0272 lero la morara le monyang
140_0273 ba ba ba nkana ka
140_0274 eo o ne a lahlile
140_0275 e ne e bapalwa ke
140_0276 ya mmileng e ne e
140_0278 a ke o re phetele
140_0279 di ne di sa rerwa
140_0280 a ho tshwaetsa ho phatlalletseng
140_0281 ba ath party
140_0282 e re ke lebe ka
140_0283 british prime minister
140_0284 o tehele mohlalanyana o mosesane
140_0285 ha e sa le tjhatsi
140_0286 a bopolesa e ka ba
140_0288 green coffee beans
140_0289 ho na le ho honyane
140_0290 la diphuputso la temo le
140_0292 theoha koloing ya baeti seteishening
140_0293 ho kgabisamola oo ka ho
140_0294 e monyane bashemane le banana
140_0295 ho na le sefifi sa
140_0297 world s largest
140_0299 ha e le ho ya
140_0302 mmankepe bo totiswa ke ho
140_0304 e kgethilweng ya bamamedi ba
140_0305 mosotho o ye a re
140_0306 a ka lesaka ha ke
140_0307 ha o ka kgethelwa ho
140_0308 wa ho tsebisa baahi ka
140_0309 ba lehano e sa kgoneheng
140_0310 utswe ha ba qale leshano
140_0311 e qadikaneng ya ho kgaketsa
140_0312 ya diahi ho nhbrc le
140_0313 difounu le difekse le ho
140_0315 bo nahala a na le
140_0317 ebe ha o dumellane le
140_0318 ba ka ke ne ke
140_0319 ntlwanatshwana ho so be le
140_0320 ka yonaka lebakala ho se
140_0321 re ho a be ho
140_0323 be a qetelle a sa
140_0324 le maruo a terasete ya
140_0326 e ikitlaleditse ho o fa
140_0327 ke re ho ye ho
140_0329 a ipatile ha moruti ke
140_0330 ho a tlama ho tlatsa
140_0331 ya basotho ho ne ho
140_0332 mahlabisa dihlong e le ka
140_0333 ba sa tswafe ho e
140_0334 la nale a ke o
140_0336 di entswe ho na di
140_0337 ya nyewe se sa thuswe
140_0338 hlano a le modudi wa
140_0340 qha eo re ka mo
140_0341 pro football hall
140_0344 ba itlhophereng ba na le
140_0345 shebe e be o seha
140_0346 matsatsi a mashome a mararo
140_0347 lemang di a tjheha di
140_0348 ka sontaha a leshwe ka
140_0349 be leholo o se o
140_0350 le ha le ne le
140_0351 a ke ke a qobellwa
140_0352 ya tleleime ka sekgahla sa
140_0353 di ne di phatsimakaka ho
140_0354 yuniti ya bokenadipakeng ya tonakgolo
140_0355 e bontshitse bophahamo bo sa
140_0356 verifiable source proving
140_0357 parliamentary representative democratic
140_0358 mathomo e ne e se
140_0359 ho ya boithabisong ho se
140_0361 e sa thekeseleng ntweng ya
140_0362 mohlankana ba nyamella ka thotaneng
140_0363 le phosphorus e ka ba
140_0364 hlomi o ne a bolelle
140_0365 ka mahlong motsotso o molelele
140_0366 wa be o se o
140_0367 le ho se tsejwe ha
140_0368 di ya ka therifi ho
140_0369 o atlehile ho kgina tshwaetso
140_0371 hehehe ho re ho na
140_0372 se busetseng ho nkwa ha
140_0373 ho tlalellana di a pakellana
140_0374 ho eo ho itsweng ho
140_0375 ke nyatsana le ho ikwahlahela
140_0376 sirelletsa o wa ka ke
140_0377 le mefelebithi ya dihlahla a
140_0378 ho hlometswe ho tlatlaptjwa ha
140_0379 aha keketseho ya ho fehla
140_0380 re hotse tlasayonao se ipateka
140_0382 ka wa mo palla ka
140_0383 ya se ke ya mo
140_0384 ba morabona e se e
140_0385 ho demokrasi e amohelang ho
140_0386 ha sheri a dumetse ho
140_0387 o ne a wetswe ke
140_0388 ha o tshepahale o le
140_0389 bulele ha ho se ya
140_0390 ne o ka mo qenehela
140_0391 le ya mookodi ka hohle
140_0392 e ntsee matlafala ha se
140_0393 na ho ba le boitelo
140_0394 ka ho qholotswa le ho
140_0395 ya thutapuo ka bokgoni bo
140_0396 united states government
140_0397 panado ya mokedikedi e tsebahala
140_0398 mothusi wa sadc eo e
140_0399 ho division liquor products stellenbosch
140_0400 boya ho ne ho tletse
140_0401 tjhonneng ha a ka a
140_0402 keleng qetelong le dite maneng
140_0403 e atiswa ke ho se
140_0404 ya mokganni wa borutehi bo
140_0405 a mo thiba a ba
140_0406 holy roman empire
140_0407 a mo shapileng hamper ka
140_0408 ya ditswantle ya bongaka ba
140_0410 india le akanang le la
140_0411 ho nthusa ha ke le
140_0413 ho moedi wa bofutsana le
140_0414 ha ke re ha ho
140_0415 o neha motsotso wa ho
140_0417 e meng e ne e
140_0418 natural number n
140_0419 a ho ba le dithibela
140_0420 qaka eo a tshwarahaneng le
140_0421 e ka sebedi swang ka
140_0423 best original screenplay
140_0424 ke ne ke le tsietsing
140_0426 le thulano ya dikgahleho ka
140_0427 hahang ha a hlokofetse a
140_0429 mehau ha re a bokolle
140_0430 mandela o ne a le
140_0431 dikgohlopo o ne a na
140_0432 ho se tshwanelwe ke ho
140_0433 le ya bonna le bosadi
140_0434 itlaleha lehlaba le mo nkileng
140_0435 efela e le ya tlotseng
140_0438 a ka re hopolang ka
140_0439 ho se mo sune ha
140_0440 di buisane le fhr ka
140_0441 se e le ka makgetlo
140_0443 e le diritsa ba kgaohile
140_0445 v ha a ne a
140_0446 e tshelwang matamong a ho
140_0448 otlile a ba a mo
140_0449 dubious date march
140_0450 ke ha a rohakwa ka
140_0451 e hlwailweng ha ba ha
140_0452 ke ho methwa ha mafura
140_0453 ba sebedisang matsoho ho buwa
140_0454 e ka ha ho a
140_0455 ne sa e romele ha
140_0456 phokotso phanyeho le kgaotso ya
140_0458 e kotjwang ke rekoto ya
140_0459 a mmatla ka ha a
140_0460 army air corps
140_0461 letlalepepilwe o ithorisa o re
140_0462 qheku lela le dutsengpelabona le
140_0463 se a hatile molelema o
140_0464 ha o ja ho ja
140_0465 le ntshiuwa ba se ba
140_0466 a mangata tlolo ha ho
140_0467 ho se tlhokahalo ya ho
140_0468 ho roka ke ho bokotsa
140_0469 le na le vitamin d
140_0471 kemangau a e hlepholaka ka
140_0472 ha ke re o ne
140_0473 continental united states
140_0475 a ithorise ka lefeela la
140_0476 ahwa wa morapedi ha ke
140_0477 ya thothokiso le ya sengolwa
140_0479 e ne e le makgowa
140_0480 game boy advance
140_0481 p na ke lefa ka
140_0482 a bonahala ha ho le
140_0483 a ke keng a ba
140_0484 le ya mo sitisang e
140_0485 eng ha o se o
140_0486 kgodise ha di tshehe tswe
140_0487 o a ntjodietsa ha ke
140_0488 se di sutelwa ka mokotleng
140_0489 american voice actors
140_0491 mmisi lekena o ne a
140_0492 yahae e talana e pepileng
140_0494 o re o a mo
140_0495 a ithaburanya ka ha a
140_0496 a ke ke a le
140_0497 free market economy
140_0498 hlileng e o hwayahwayang ha
140_0499 eo e ipatlelalenaka la mophatong
140_0500 radiopane a ka be a
140_0502 bo tsotehang hakanakana na ha
140_0503 kantorong eo molefi a dutseng
140_0504 ba ne ba ka hapa
140_0505 o kgesa ha ba o
140_0506 phokojwe ha e tshela moedi
140_0507 le mmatheko ene e le
140_0508 sa balang le ha ho
140_0509 ya maswetso e ikarolang ho
140_0510 vasco da gama
140_0511 se lokelwa ho ithutwa sethatong
140_0512 mmontsha tosa le madinyane a
140_0513 ha mosifa o honyela o
140_0514 gauteng kamora leeto la balfour
140_0516 ne ke re na ha
140_0517 modumellani a ke ke a
140_0518 thabeng le ha ho le
140_0519 bophihlelo ba boiketsetso ho phedisana
140_0521 ho bokellwa le ho hlophollwa
140_0522 manyala a entsweng ka boomo
140_0523 le thibelo e qobelehang ya
140_0524 ho sa bola o a
140_0525 boi ba tjhetjhe letsholong ba
140_0526 ho be le makalana mabatoweng
140_0528 ka mmaletswai o ne a
140_0529 ke hierarchy of needs ya
140_0530 l cuin abbr
140_0531 san francisco bay
140_0532 hoba ha ke re ke
140_0533 thellisane phupekalefe di ne di
140_0535 ne a se a tletse
140_0536 dibakiso e ne e le
140_0537 ke tshohe moru o se
140_0538 na ha o sa mo
140_0539 a di shebe e be
140_0545 ne ba ithabetse ba ipinela
140_0546 o ka ba le sethunya
140_0547 v ha a ka a
140_0548 ditofo dikisara le dihitara ke
140_0549 letshwele ha o tswelapele ho
140_0550 dnp ka bophara dnp di
140_0552 ka ho le akga ha
140_0553 british science fiction
140_0554 a re hela kgudu e
140_0555 a be a itsamaele ho
140_0556 e ne e bapalwa ha
140_0557 ka ho o nahanela re
140_0558 ha e kolotwe ka ha
140_0560 middle east peace
140_0561 a di butseng di ne
140_0563 ha se ne se mo
140_0564 o jewe ke haretsebe ke
140_0565 e ne e le sehla
140_0566 o o bale hape ho
140_0567 ha o na ho ba
140_0569 e be o pepesa tjhate
140_0572 le ha a o ka
140_0573 le ha di ngotswe di
140_0575 ka ha ho ya ka
140_0576 e ne e le ha
140_0577 ha o ka wa ntshehetsa
140_0579 a sehetswe ho ya ka
140_0581 le dumme ha ho be
140_0585 ho ka hodisa le ho
140_0586 ha ho lefuwe ha ho
140_0589 e ne e ba feko
140_0590 ra re o tsejwa ka
140_0592 d ha ho ya ka
140_0593 le ho ba motswadi e
140_0597 ka ha o ne a
140_0599 royal swedish academy
140_0600 ha se leralla a ke
140_0603 ka bobare ho ya ka
140_0607 le se ke la ya
140_0608 ke a itahla ha ke
140_0610 ho ajwa ha maruo a
140_0611 ho ke ke ha ba
140_0612 bo fetohakang le f ho
140_0614 ho lefshwa e le tefiso
140_0617 ka tlelapa ke ne ke
140_0620 thipa ka bohaleng ke ka
140_0622 la diphetolelo le tlhaolo ya
140_0624 oka seso ka makgapha ha
140_0626 ka o tshwarisa mmamphele ka
140_0627 a fapaneng le ho ya
140_0628 ba ho qhekanyetsa wa mphato
141_0002 ha e ne e ka
141_0004 le a ka la ba
141_0007 a mang le a mang
141_0012 ho ya ka ho re
141_0015 ya d e f le
141_0063 a o shobile a o
141_0113 e ne e mo fa
141_0227 a be a re na
141_0379 ho re a ke ke
141_0449 mekutung ya kontinente ya ho
141_0450 ha o ne o mpolella
141_0454 be le se le ya
141_0455 a tshwaetsang a ka fumanwang
141_0461 belehwang ba e na le
141_0464 o kgutla a se a
141_0466 a iphetapheta e tswile lekoteng
141_0468 new orleans saints
141_0471 hlokehe ha ho se ho
141_0472 algebraic number theory
141_0475 e be ba ya le
141_0477 acquired immune deficiency syndrome eo
141_0479 ho ba boimanyana ho le
141_0481 ke a tiisa ke a
141_0482 a sa utlwusise ho re
141_0494 le akgele ka sefutho sa
141_0497 ho khanseling ya borutehi le
141_0499 new england patriots
141_0500 high middle ages
141_0501 he ke se ke le
141_0507 o na le mohiri ya
141_0511 re soqete ho foroma mmaditaba
141_0514 baheso le baeti ba hlomphehang
141_0520 magnetic resonance imaging
141_0521 o ye a re o
141_0522 bo ne bo hlomola ho
141_0526 o motjodi o tono se
141_0529 se tlisang tlhonamo ho ntatemoholo
141_0532 greek orthodox church
141_0538 wa ka ya bitswangsentebaleng o
141_0539 e se e le shwalane
141_0540 infectious disease deaths
141_0544 ya indaseteri le ho tsepamisa
141_0545 le beta pooho ha o
141_0546 bo ka kgonwang ho lefellwa
141_0548 di cc ha di tshwarisi
141_0550 di sa fihle harehare mohopolong
141_0554 khanselara ya boemedi ba tekano
141_0558 wa ho kgathalla le ho
141_0559 e potang ka kae ee
141_0561 a ke a o jelle
141_0566 le se ka fetofetohang ho
141_0568 sekgalekgale boinyatso le ho jariswa
141_0570 ha ho na ntshunyekgare e
141_0572 feedlot fektri ya ho prosesa
141_0574 ya ketelo ke tlelaente e
141_0575 di e hafaka e ne
141_0576 ke lakatsang ho iphelela le
141_0578 mehlolo ha ho thwe mehlolo
141_0579 evangelical lutheran church
141_0580 mafelo a veke ho sa
141_0583 ho be le ngangisano le
141_0587 ho tshwanelehile le ha ho
141_0589 le ho kopakopana ka bobona
141_0590 ie ho di qhaqholla ke
141_0593 ha le thakgiswe ke ho
141_0594 ne a kwalletswe bosiung bo
141_0595 a mohiruwa a a kokobela
141_0596 o se ke wa tshoha
141_0598 ne re se re sa
141_0603 ka lenyele ke ne ke
141_0605 ya ka e nyopiswa ke
141_0606 east india company
141_0609 e kgomaretsang le e kwahelang
141_0610 ba be ba hloye ba
141_0614 fetelepele prudence e ne e
141_0615 leeto la ho ya amerika
141_0618 states census bureau
141_0619 old east norse
141_0620 hofetisisa e ne e le
141_0623 bokellwe le ho sire letswa
141_0625 voutela boramotse metseng ya borona
141_0626 e re e a ba
141_0628 articles lacking sources
141_0631 behilwe ka mosing nakong e
141_0636 be ke phutha mehaswana ya
141_0639 rekoto e kotjwang ke rekoto
141_0642 afc championship game
141_0648 e fane ka phihlello ho
141_0650 a mabe ho diphaka ho
141_0655 ho re hlobaetsa boroko le
141_0658 sa bokone nguni le sa
141_0662 ba sa lebaleng matjhere a
141_0663 j r masiea e na
141_0666 mafenethe o ne a lokollwe
141_0667 ya dihuweng o hlotswe o
141_0669 ho hlwauwang le ho halaletsa
141_0671 se phethetsweng se phethetsweng se
141_0673 tsohletseo o di laelwang ka
141_0675 le mengwe le a imema
141_0677 mataupana letshaba le nomvuyo mmadimpho
141_0681 tshupiso ya paye e sa
141_0682 diyuniti teeo o di rekileng
141_0684 b c d e mekgabisopuo
141_0685 bopaki ba setaele sa hae
141_0687 egepeta morocco ghana le london
141_0688 original
141_0690 bakganni le beng ba ditekesi
141_0691 ka maetsi a matso a
141_0695 ho sala ho dubehile ho
141_0696 o busang o na le
141_0697 ho e rua le ha
141_0698 ya a le ya b
141_0699 ya lebatowabrigitte shabalala ha a
141_0704 wa praevete di ne di
141_0705 le ii le ya ka
141_0706 le tlhaselo ya malwetse le
141_0707 functional programming languages
141_0708 ha ba sa ntlose ke
141_0710 bo tlalehwa ka thelefounu le
141_0711 ye ba re ha a
141_0712 dental caries a tlwaehile ho
141_0714 e ma hareng ya ditlhokeho
141_0715 pauli exclusion principle
141_0718 mamelwang le ho bohuwa hong
141_0719 thousand years ago
141_0722 import permit e na le
141_0725 le ho ikotlolla se sa
141_0726 ngwanenwa wa ka e se
141_0727 science fiction author
141_0728 ho se ya e bohileng
141_0730 north atlantic treaty
141_0734 na le lenyatso le ho
141_0735 ka ho re ha e
141_0738 ba ka fetisetsa dikokwanahloko ho
141_0739 sexually transmitted diseases
141_0741 se tshwanelehe ha a bapisehe
141_0743 ho hlompheha le ho se
141_0746 a se a ba buletse
141_0747 wa lbs ka ha lbs
141_0748 e le sesebediswa sa ho
141_0749 a ka a se kgopisehe
141_0753 difela di ne di qatjwa
141_0754 ha o e rekisa e
141_0755 leqepheng la ditaelo le ka
141_0756 ka di apostille certificate ke
141_0758 se e le mobung o
141_0763 ho ho ne ho puruma
141_0765 jwalokasesebdiswa sa diphethoho le ntshetsopelere
141_0768 kgwehlise mangole e le ka
141_0772 ya ditshoso ya ditshokelo le
141_0774 molora wa setopo se tjhesitsweng
141_0775 distinguished service medal
141_0777 ka moya o motle ho
141_0779 wa sekete ya thelevishene e
141_0783 ke tabatabelo ya ka ho
141_0786 di se di le mafekefeke
141_0787 representative democratic republic
141_0789 hono ho ke ke ha
141_0790 e se ka thatathata ba
141_0791 e le tshweu ha a
141_0795 o mathela fensetereng e shebaneng
141_0796 nations security council
141_0798 mtv video music
141_0799 ho se be le dimamello
141_0801 ya di deeds e ya
141_0802 bulehileng ya sa keneng dintweng
141_0806 ba rerile ho o etsetsa
141_0807 a lebane le pheletso ya
141_0808 world wildlife fund
141_0813 eo a qalang ho kopana
142_0001 golden globe award
142_0008 ya ho ithuisa e ka
142_0009 radiokhasete a di rekise a
142_0018 le kgutsitseng o sa natse
142_0020 john quincy adams
142_0021 ya bongata ba pedi borarong
142_0022 sontaha a leshwe ka ho
142_0023 a ka a ahlolelwa ditlolomolao
142_0024 ho na le phapang ya
142_0025 le phallo ya kapetlele e
142_0026 ha tima haboro e ne
142_0027 moahisane a ka tshireletswa ke
142_0028 e sa le wa motonanahadi
142_0029 le thabo e renang pelong
142_0031 ho hasana le ho kgobokana
142_0032 e bopehileng le e radilweng
142_0033 ya tlotlontswe kgetho ya mantswe
142_0034 be a kwetlise le bakopi
142_0036 kengakayahao ponoyangakaya specialist e ke
142_0037 ya santa peterose e bontshitseng
142_0038 ba ha a se a
142_0039 pokello le ho lahlwa ha
142_0040 a hlalosang sesotho kateng ke
142_0042 bo ntshuwang v ha ho
142_0043 kgotso le eo molekane wa
142_0044 ba ntsukobokobo ba ne ba
142_0045 le dioli di na le
142_0047 e ne e sa kgotsofatse
142_0051 ba eleketeroniki ba se ba
142_0052 ho ne ho buuwa ka
142_0053 narrow gauge railways
142_0055 english common law
142_0057 lefiswa e qaqisitsweng ha e
142_0059 e hafaka e ne e
142_0060 a qamaka kwana le kwana
142_0061 setorouku ho ye ho hlokahale
142_0062 ke ke wa ntshitisa ka
142_0064 ya mapolasi e sa kgoneng
142_0065 otsjet ejiwe la setate emte
142_0066 bahlanka ba beilweng ke molaodi
142_0068 dipampiring e ne e le
142_0069 tlhokomela e ka tshehetswang ka
142_0072 le tahleho sekeng sa leilho
142_0073 supreme court decision
142_0074 hapeterose a ne a latole
142_0075 a re gedan barai kumite
142_0077 saennwe ke moamehi ya nehelanang
142_0078 qalong ha moeti a sa
142_0079 ne a sa sisinyehe le
142_0081 e e a ke le
142_0084 sa ho iphedisa le ho
142_0086 le thella ha a re
142_0088 o se o tletleba ka
142_0089 a se a e rahile
142_0090 di ikarabella phumanong paballong le
142_0091 o ne a bitsitse mmantsopa
142_0092 o tebetseng a re ha
142_0093 moetlong wa mahindu ho hatellwa
142_0094 sefahlehosahao se edile o a
142_0095 ka tlhoko e be o
142_0096 ya ka nahanang ho mo
142_0098 ya phetolelo ya founu ya
142_0099 ho tlatlaptjwa ha dibanka ho
142_0100 countries established diplomatic
142_0101 di le kgolwanyanehamonate e le
142_0102 mmampodi kgwaolla ditswakotleng jm lenake
142_0103 le ha ho nehelanwa ka
142_0105 boroko bo se bo iphile
142_0106 tshwarwang ka menwana sa letswai
142_0108 re se mawelana o mo
142_0109 ho ya ka sekala se
142_0110 ho ya ka tjhadimo ya
142_0111 le ho thakgola ka pejana
142_0112 o bohale le ho ba
142_0113 e se ka takatso ya
142_0114 a b c d e
142_0115 di ka tlamellwa fenseng ho
142_0116 ya khompyutha ha e le
142_0117 actual old content
142_0119 upstate new york
142_0120 benyang ka meomo e hlatswitsweng
142_0121 ba le mahlwele maotong e
142_0122 fihlela qeto e itseng pheletsong
142_0124 ho emisa kgulo ya ditefello
142_0125 municipal infrastructure grant ka ho
142_0126 ha e ba di le
142_0127 international atomic energy
142_0128 ne e se e fedile
142_0129 tlhaloso ya phihlello thutong ka
142_0130 di ka ikemela ditjheleteng le
142_0132 re sitele jehova ho rapela
142_0133 o ye a re tshwele
142_0134 fetofetoha ka ho ya ka
142_0135 wa re kgothometsa maralleng wa
142_0136 e le ho maloro a
142_0137 v v v v ha
142_0138 ditjhabeng lehlanahlana ke la motimahlaha
142_0139 kutlwahalo le netefatso tiisetso ya
142_0140 o hlokomelang le o phethahatseng
142_0141 ho tshwaratshwara ho sa amoheleheng
142_0144 ba shebediso ya thutapuo le
142_0145 dubious date april
142_0146 clarify date february
142_0148 be ke iphetola setshehisa sa
142_0149 e ke ke ya senola
142_0150 e e sa etsweng ka
142_0151 fetolang le ha a ne
142_0153 ba hodileng ho itshehetsa le
142_0154 ice hockey team
142_0155 phanele ya baahlodi ba kgethuweng
142_0156 ka mafikeng one a le
142_0157 he ke re ke mo
142_0158 botlase ba selomo bo kwahetswe
142_0159 ntlong ya banyalani le dikahareng
142_0160 ha koro le dijothollo ho
142_0161 mesikaro ya sesole e boimahadi
142_0162 eo a se a befile
142_0163 ho se sebedisane le ho
142_0164 a ba a timellwa ke
142_0165 ka ba le pro forma
142_0166 o re ho se ho
142_0167 shebella ha ngwale e kgiba
142_0168 nfc championship game
142_0169 black sea coast
142_0170 ka ba susumelletsang ho etsadiketso
142_0171 le kgethehile ka foreisetata le
142_0172 kgwiti ka ha le tshaba
142_0173 se dumellwe ho shebella dividiyo
142_0174 re ke maobanyana a matsho
142_0175 majerini botoro le mayonaise dijong
142_0176 hobaneng o ne o inanatha
142_0177 busa busa lemati ho a
142_0178 e tsebahalang le ho hloma
142_0180 a sa di ja le
142_0181 tswantsho ya bobodu le mkga
142_0183 la ka le nele tlokoma
142_0184 motaungyane wa seroki ho ya
142_0185 kgiro a ho ba le
142_0186 kolobe ha a ka a
142_0187 batlisisa ho tshwantsha le ho
142_0188 le basebetsing ba itshebetsang ba
142_0189 hanyane ka hanyane o a
142_0190 re ne re ikinne ho
142_0191 bano ba sa sitisweng ke
142_0192 le letjha mme o sehe
142_0193 ho susumetsa le bafana bafana
142_0194 manyaditsweng ka mafuraa nkgang dipompong
142_0195 ba lefshwe ho ya ka
142_0196 esong ho hulwe ditjeho kenyeletsa
142_0197 a siuwe ke makgaola o
142_0198 king george
142_0199 sekgukgune a se bipetswe ke
142_0201 ba hore moralo o lebisa
142_0202 konsarete ya mmuni ya ho
142_0203 molaodi wa mafa ya kgethehileng
142_0204 ho re ke thapedi ya
142_0205 le kakano ya fora dipapatso
142_0206 ke ya ba le ditlhapiso
142_0207 bavouti ba ingodisang ba ka
142_0208 kolobo kase ya lebejana le
142_0209 nnyeo ba ne ba shwele
142_0211 ho sutha mokgweng wa thekolohelo
142_0213 ka ha ho tekilwe tlhophisong
142_0214 le ke ke la o
142_0215 winter olympic games
142_0217 close air support
142_0218 ngodiso di a latelwa ngodiso
142_0219 internet engineering task
142_0220 ha ke sa itlhokomele ke
142_0221 sa phomole o ne a
142_0222 e re tataisang menahanong le
142_0223 e ba le boikarabalo bo
142_0224 eo barutehi ba itshwereng ka
142_0225 a se ke a ota
142_0226 southern baptist convention
142_0227 e ne e le hoya
142_0228 le metsoe mene ho thlola
142_0229 leholo le tiileng la kaho
142_0230 ho na le kopanyetso ya
142_0231 se be eo mmate wa
142_0232 ya ho pholosa ka ho
142_0233 ditopo a ke ke a
142_0234 civil aviation organization
142_0235 le ho se inyatse ha
142_0236 di indasteri ka ho kgethehileng
142_0237 mmasebolelo butle bo mmanyeo o
142_0238 le ditlwaelo ho ya ka
142_0239 lehwatatanyana le saballetse ho ya
142_0240 ha a kobile mangwejana a
142_0241 ho itshwareletsa ka mahohodi ba
142_0242 matlotlosia ba seba o ne
142_0244 thibelang mafafatsane a ko bapatse
142_0245 se ka rerang ho di
142_0246 tlhahisoleseding eo o fanang ka
142_0247 itholela a re tu phokojwe
142_0249 sa deidro di a kgolweha
142_0250 e ja setsi le ho
142_0251 cuban missile crisis
142_0252 international human rights
142_0255 buuwe ka ho lemala o
142_0256 le ho hokahana ka tshebetso
142_0257 ao ho ka nehelanwang ka
142_0259 ha di robaletse ke o
142_0260 sir isaac newton
142_0261 deputy prime minister
142_0263 mathisaka matshoho ka mokokotlong ho
142_0264 la ho ya le sephume
142_0265 a sa ye kerekeng o
142_0267 le lakesense ya kgaso ya
142_0270 diphoofolong ha di yo kotulong
142_0273 south american nations
142_0275 npi e na le kantoro
142_0277 american male singers
142_0278 a e tshepetswe ka nqe
142_0280 manolla palekgutshwe ha di a
142_0281 ho na le se sa
142_0283 ho rehotla ba lekopano ya
142_0286 e na le ho itlohella
142_0288 o ne a hlile a
142_0289 tlhaka ya basotho p t
142_0290 e a etswa ho tadimilwe
142_0291 utlwileng ka ho nyalwa ha
142_0292 manyalong di susumetsa banyalani tlhalanong
142_0293 naheng ya matjhaba e ka
142_0294 o ne a enale banababararo
142_0296 a ka ketla le tlisetsa
142_0297 london stock exchange
142_0298 di ba qositse bokgothokgotho ba
142_0300 o re o na le
142_0301 ka hobona kgolong ya ka
142_0303 o sa ntome le ho
142_0304 ha o se o kene
142_0305 o ne a sa sisinyehe
142_0306 qamaka le ho ikgodisa ka
142_0310 a itlaleha lehlaba le mo
142_0311 tjamelaneng le indasteri ya merafo
142_0313 v a ke ke a
142_0314 kwallalemati la tekisi ha e
142_0315 e qetwa ke motjheso ka
142_0316 na o ka re ho
142_0317 ka mokotla a o phuntsemasobana
142_0318 wa re be re tsohe
142_0320 ka ha e le tlwaelovv
142_0322 ha re a phekgohe a
142_0323 ba thaothwang ba ne bangongoreha
142_0324 katamelo e tobisitsweng ho phofu
142_0325 united states navy
142_0327 ne a sa sitwe ho
142_0328 ke fositse mokubetso ha ke
142_0330 khopi e tiiseditsweng ya tokomane
142_0332 e phutholohile ha e ya
142_0334 e sa komakomeng le ha
142_0335 human immunodeficiency virus eo ka
142_0337 moleng wa wepsaete o ka
142_0338 a ka ba le badudi
142_0339 mokgosi ba ba lelekise ba
142_0340 o e lebiswa ho wa
142_0341 ya thuso ya tjhelete mokgatlong
142_0344 kgahlang ke ya banhlankana le
142_0347 e hlabang makotikoti a sa
142_0348 ne a le popa o
142_0350 o ba kentseng projekeng ya
142_0351 ya ho inwella ho ituletswemoriting
142_0352 e ne e le lekonstabole
142_0353 ne a ikemiseditse ho mo
142_0354 aterese ya moaho ya bodulo
142_0356 le esong ho ka le
142_0358 ya dipetlele le ditliliniki le
142_0359 ke inehetse a ne a
142_0360 democratic labour party
142_0362 o sa kgoneng ho bo
142_0363 se na tlamo ya ho
142_0364 sejura le le se latelang
142_0365 boiteko bo fokolang ba ho
142_0367 le ya ikanang ya sa
142_0369 phehuwang le se o ferose
142_0370 ronewa o re ditlhware di
142_0371 botjha le ho hlaola diphoso
142_0372 eo a ya lefung o
142_0373 ho kgefutsohare le ho le
142_0374 o tl waetsa phaphusi ya
142_0376 o rera ho ya pensheneng
142_0377 hotsholo tjhoba le se le
142_0378 seka sekwa le ho phutho
142_0379 ho ithata ho ithlokomela le
142_0381 human rights watch
142_0382 presidential representative democratic
142_0383 ke o rohaka ha ke
142_0385 ha ba ne ba ye
142_0387 le web administrator ka ho
142_0388 ha o ne o fufulelwa
142_0389 ne e le mokgwenyana wa
142_0390 e ntsieditse e a nkimela
142_0391 le ha mohlomongo ne o
142_0392 ditshokodiso banang le dikgathatso ho
142_0396 ke ho re le ha
142_0398 le mmapa dikerafo le ditafole
142_0400 ho lokisa wili ya ka
142_0401 ya tb e ne e
142_0402 eo o e hopotseng e
142_0403 o ne a halefa ha
142_0406 seqhwalasena se pudufetseng se siileng
142_0407 o ne o le e
142_0409 e le ho lahla mehlala
142_0411 ho kapea ka baesekele ho
142_0413 ba a inehela ha ho
142_0414 ho tshwarana ka maqiti ka
142_0415 di na le babuelli ba
142_0416 american roman catholics
142_0417 nations general assembly
142_0418 united states postal
142_0420 maleme e ne e le
142_0421 botebong ba thabahadi a epe
142_0423 mmetwane ho nyenyefatswa ho tetekwa
142_0425 di be le kgutsufatso e
142_0426 sa ntshwaneleng le ho ntshwanela
142_0427 o sa qeaqee le ho
142_0428 ho ya ka pfma ke
142_0430 ba mehlengena ha ba sa
142_0432 le ikarabellang ho peholeihlo ya
142_0434 ka re e kgathetse ke
142_0435 power parity comparisons
142_0436 a bapisehe ha a na
142_0437 ka ba le tiehiso ka
142_0438 ntate na o a elellwa
142_0440 ya bohlabaphio ya rivonia di
142_0442 ho mo kgothatsa ha a
142_0443 o a phuthuloha le sefahlehong
142_0447 phahamele mapoqo e sa le
142_0448 ne ho se ya ithekang
142_0450 o ho tenang a ho
142_0451 foreign exchange reserves
142_0453 wa boraro le ha ho
142_0454 la matekwane na ha se
142_0457 a bathaoti ho tsakgwebo a
142_0458 american community survey
142_0459 le ho botswa ha dipaki
142_0460 eo re ka e fihlelang
142_0461 o ne a apere mose
142_0462 close corporation di partnership ditlelapo
142_0463 ke e lebang jwaleng ho
142_0464 be e le ho fahla
142_0465 a be pelonolo a be
142_0466 kenyelletsang ho rekota le ho
142_0469 d i ha se a
142_0470 le f ka ho hlohlomisa
142_0474 se batlahala se fihlelletswe ho
142_0476 e kenyelletsang le e lebisitsweng
142_0477 ho se ikamahanye le dipehelano
142_0478 discrete fourier transform
142_0479 ubella ditsuonyana a sa mekamekane
142_0480 ne ho timetswa ka ho
142_0482 ho mmuelli ke ha a
142_0483 ne e le mofufutso o
142_0484 silivera o pshatlehile ho pshatleha
142_0486 lekola botjha le ho hlaola
142_0487 united nations general
142_0488 eo e ne e le
142_0489 bui sana le mec ya
142_0491 early bronze age
142_0492 ho ntheka ka leleme le
142_0494 wa genevieve wa ho ba
142_0495 ho hoholo ha ho rentwa
142_0498 united states declaration
142_0499 le yogathe e ka nwewa
142_0500 e le molwantshi terameng ee
142_0501 quotas ho be le dikotlo
142_0502 o hloka ho thuswa ha
142_0503 e le ho fenethalesea ha
142_0506 le phuputso e nyalanang le
142_0507 home loans pty limited eleng
142_0509 teile ka maqai a matonana
142_0510 pelonghakana a ba hodisitse ka
142_0511 ka kopanelo le ba folang
142_0512 le ka boikutlwahatso maemong a
142_0513 comic book series
142_0515 molotov ribbentrop pact
142_0516 di finyelletse mokgatlong oo a
142_0517 e fata e kuputsaka marole
142_0518 ditlhaloso o ne a di
142_0519 ramosebetsi a faneng ka tumello
142_0520 greek lang grc
142_0521 le meralong e kopantsweng ya
142_0522 meqoqong ya botswalle ha le
142_0523 e kgolokgolo eo gabriel biala
142_0524 itshetlehile tshebedisong le tlhalosong ya
142_0525 roman catholic writers
142_0527 a sa lofe a ka
142_0528 ho na le bo senyang
142_0532 le ho reseo a se
142_0533 be a se a re
142_0534 na le ho se hlake
142_0535 la lkb le khm ho
142_0536 ha mashodu a sa otlwe
142_0537 ha ho le lefifi kgathe
142_0538 national hockey league
142_0539 thirty years war
142_0540 ba di thu sang tshedimosetso
142_0541 ho ke ke ha thwe
142_0542 kaofela re ne re hopola
142_0546 dikelellong le maikutlong ha ho
142_0547 bo hlothe ka ho sa
142_0549 hlwauwe ke commander le ka
142_0550 e hlomphehang ya ho re
142_0551 ho iphupuletsa ka bobona e
142_0552 selasela theepe ya dimo a
142_0553 ee a ke o re
142_0555 ho bahlahisi ka ho ikenyetsa
142_0557 home field advantage
142_0559 ho boranta boranta o re
142_0560 world cup players
142_0563 e ngotswe fatshe ke le
142_0564 sedika ya directorate saafqis ke
142_0566 fact date august
142_0568 ya ho re ho uwe
142_0569 o ne a se leqhoko
142_0572 ba ho pshatla le ho
142_0577 ya paye e sa fumaneheng
142_0578 ebile o se ke wa
142_0579 ne ho tsongwa ho jalwa
142_0580 mofu a sa siya molekane
142_0582 e hlwekileng e bileng e
142_0583 le ka kgethwang e ka
142_0586 motor vehicle manufacturers
142_0589 o ne a tlamehile ho
142_0590 ho mo hlekahleka di mo
142_0591 ka ha ho phehelletswe ho
142_0592 a fe kap a fe
142_0594 ho loela ha demokerasi ya
142_0595 moodi le menyepetsi ye maswabi
142_0596 ya hlolehang ho ikamanya le
142_0601 wa poulelo le wa ho
142_0602 le tshebediso ya matshwao a
142_0603 jwetswa o bonwa ka dikgapha
142_0604 ya dikantoro office administration ka
142_0605 science fiction writer
142_0609 o qollehang o ka thehwa
142_0610 adv johnny de lange ke
142_0611 ye ba itokisetse ho ya
142_0612 a ikemetse a ikgannale ho
142_0614 nuclear chain reaction
142_0615 ya kgumamela ka ha ba
142_0616 ka peipi ya kenyomoya e
142_0618 new democratic party
142_0619 o qela ka qenehelo le
142_0620 bonkeka ba di tlwaela kapele
142_0622 karete eo o memelang ba
142_0623 ho akgellwa ie lebollo ka
142_0625 ho be ho petsohe le
142_0627 ngwanaka ka ho ja masooko
142_0628 tsitlallela ho tlisa katleho ya
142_0630 nthuse joo hi a kgwatjhoha
142_0631 ho bapatsa le phapanyetsano ya
142_0633 ha ho sa na ka
142_0634 ho ya ho ya ho
142_0636 ditlamatlama ba ka o phekola
142_0638 ke badimo ba mmontsha leru
142_0639 ho ne ho ka ba
142_0640 israel defense forces
142_0642 league baseball team
142_0643 ya pulo le ya kwalo
142_0645 ha re hle re di
142_0646 ho na le tlhokeho e
142_0647 ka b o kgoni bo
142_0648 ho re ke kereiti yabohlano
142_0649 a morafong oo a bea
142_0650 kgonong a mo futse ka
142_0652 re ne re itshwenyetsang ka
142_0653 ba ditokotoko ba ne ba
142_0654 o mo ja a le
142_0655 a foreshe a bonojana ho
142_0658 tshwaya ke maikutlo a motshwayi
142_0659 ho ba bangodi babohi le
142_0660 a ntshahlooho ka dikobong a
142_0662 boronkhaetisi le nyumonia ho e
142_0663 wa difate o ka nqane
142_0665 british foreign secretary
142_0666 le re ha le sa
142_0668 khomeshenara wa dikano ke ho
142_0669 le ho thunthetswa ka ho
142_0670 eo a ke keng a
142_0671 le tshibollo e fihletsweng ka
142_0672 kaana o iteta o re
142_0673 ke be ke wele ka
142_0675 ho ba le dikri ya
142_0677 qabang ya ka le ba
142_0679 kgotjwa e le maoto mane
142_0680 mo nyala le ha a
142_0681 ho na le ho se
142_0682 le ha mofammere a mo
142_0683 b c d e ho
142_0684 ya my wellness ya webosaete
142_0685 o ne a tadimane le
142_0686 a sa ka a tsotellwa
142_0687 ha di ne di kgabola
142_0688 supileng sehlekehlekeng sa robben ha
142_0689 le ho re fotseke ntjeng
142_0690 ke e ba batsehang o
142_0691 sa rutehang ya bolotseng ya
142_0692 ke re o mo hlale
142_0693 e nngwe le e nngwe
142_0694 internet service providers
142_0696 sepikara ke motlotlo ho tlaleha
142_0697 ne o re direkoto pehelo
142_0698 nakwana e re nengneng a
142_0699 ha metjhini e se e
142_0700 dibeso le dikhemikale le ho
142_0701 wa monahano daekramo tjhate e
142_0703 ho na le bosara bo
142_0704 o sa re natsa ka
142_0705 na o entse kopo ya
142_0706 president barack obama
142_0708 ya laesense ya ho kganna
142_0709 ke sefeng se re tlisetsang
142_0710 ya vii c le ya
142_0712 ba ho se be le
142_0713 nehela ka sampole botlolong e
142_0714 e ke ke ya itshetlela
142_0715 ho kgwathwa ha konopo ya
142_0716 e balletsweng e le e
142_0717 states armed forces
142_0718 jwaletjena o ne a se
142_0719 ke ha a shoba mathobisa
142_0723 a hlokahetse ho ya tlatlapa
142_0724 topological space
142_0725 o ye a re ngwanamahana
142_0727 o se a re ptjangptjang
142_0728 otto von bismarck
142_0729 ne a re sejana se
142_0730 le barwetsana ba a ba
142_0731 ya sa di hadikelang ho
142_0732 ho qhekanyetsa wa mphato ka
142_0735 ba nkela motjhesi koloi ya
142_0736 le molatswana o phallang lesodi
142_0738 ha ho bapiswa le ho
142_0739 le ne le le lekgubedu
142_0740 ho bafani ba tlhokomelo ya
142_0744 soviet socialist republics
142_0745 se kgwatha senare sa katara
142_0746 mohopolo o hlahisitsweng moleng o
142_0748 e qaqisitsweng sehlomathisong sa a
142_0750 di bapisa ie ho di
142_0751 captain james cook
142_0752 semomotela pabala twadi e padileng
142_0754 sekiri sa ho hama e
142_0757 o ke ke wa kotjwa
142_0758 hoya kamelao e kamorao no
142_0759 ditonele dikwari le ho ripitlwa
142_0761 ke mo tshabang ho nkgisetsana
142_0762 single transferable vote
142_0763 mo rekela motjhini o rokang
142_0766 e se e le morwetsanyana
142_0768 baithuti ba mophato o mahareng
142_0769 internal combustion engine
142_0770 eo ha a palama a
142_0771 e le baneng le ditsamaiso
142_0772 le lera la lefufuru lefufuru
142_0774 ke kantoro ya bongodi ka
142_0775 wa kgodiso eo ntataemafikeng a
142_0776 ha ke ne ke pepile
142_0777 e kgonahalang le e ntshetsang
142_0778 ba mohlomphehi seeiso mohai slp
142_0779 coronary artery disease
142_0780 ha ba hopolamora eo wa
142_0783 nuclear weapons program
142_0784 o ne a lebohuwa ka
142_0786 e ne e le modumedi
142_0788 ba kwetliswang le bakwetlisi bakwetlisi
142_0789 boholoholo ho ne ho na
142_0790 sa ba utullang dipatilweng ho
142_0791 ba di embryo di ova
142_0795 ba ngodise sehlopheng sa bolo
142_0796 le se ke la nkella
142_0800 ha e sa le yo
142_0801 church turing thesis
142_0802 asian financial crisis
142_0804 studio le setsha sa transmishene
142_0805 di se di le mothating
142_0808 ntshetsopele ya molao wa motheo
142_0809 o mogn oo ba o
142_0810 soviet red army
142_0811 early church fathers
142_0813 boele o fapose le ho
142_0814 la re ke le nyaye
142_0816 re ke mo hloile hampe
142_0817 wa dulela ho rabaka tje
142_0818 he e ye e mmalehele
142_0819 berne convention berne convention ke
142_0820 le meho polo ho lekaneng
142_0821 metal gear solid
142_0822 se sa lekanngwang se ke
142_0824 ba matshwele a baqobelli ba
142_0827 ya deedsweb ka ha ho
142_0828 ke sehwa ke letswalo ha
142_0830 ho tliswa ke tshebedisanommoho e
142_0831 le lefatsheng la komello mahwatateng
142_0832 kope ho o fa setifikeiti
142_0833 north west company
142_0834 la ho hlahloba la rebate
142_0835 mosuwehlooho a ne a mema
142_0836 ha ke ne ke re
142_0837 british armed forces
142_0839 ho re senolela mofehelo ya
142_0840 ha ke a re ke
142_0841 ba di faetseng makgistrata a
142_0842 hlomamisa dikomiti ho ya ka
142_0844 palesa o mo sheba ka
142_0846 le ho ja re sa
142_0847 a kopanang le sekweta se
142_0848 se a thusana se arolelana
142_0849 e phethahatswe le c nkela
142_0852 ka mawala a hokahantsweng a
142_0853 a be a hatise pasa
142_0854 sa lepoqo ha se kgutse
142_0855 o atlehe e le ka
142_0856 ne a ye a sadise
142_0857 se a retlile moletsane ka
142_0858 tu ka ho panya ha
142_0859 ba di je ba ke
142_0860 ha a sa batlane le
142_0861 ho re o ne a
142_0862 ba tsheletseng ba thontshweng ke
142_0863 na e be le a
142_0864 ne a sa itlwe ka
142_0865 ba nebasena boipuello o ne
142_0866 re o kgopo le ho
142_0867 se o fihletse qeto eo
142_0868 bonwang le ho ya ka
142_0874 a le lemo tseleshome le
142_0875 e sebeletsang e ikaraballang ho
142_0876 o thulana le meleko ya
142_0877 ho ekets boikgathatso ba ho
142_0878 le ho nkelwa dikoloi ha
142_0879 o ntshofaditsweng a na le
142_0880 ho buuwang ka yna e
142_0881 sa khiro se saennweng ke
142_0882 o di tsebise ka kopano
142_0883 o qeta o be o
142_0885 hangata ka ho nepahala le
142_0886 thesela mmadikotwana eo malekupa a
142_0888 e be ha e ne
142_0889 ke tsosa dibata masene ha
142_0892 economic cooperation apec
142_0893 oriental orthodox churches
142_0894 ho ewp e be ba
142_0895 le ditswejane ho le mathisa
142_0896 mmutlanyana o ne a le
142_0898 a ne a ntseabua ka
142_0903 eo ka menahano e tiileng
142_0904 mafosi o be o tshehetse
142_0906 kotulo eo ba e behetsweng
142_0907 phousetara e shebehe e le
142_0908 di se di kgethilwe di
142_0909 dikobo le ho mo busetsa
142_0911 human development index
142_0912 pope benedict
142_0913 tharo a b le c
142_0914 taba ya ho fana ka
142_0915 ao o sitwang ho a
142_0916 bo sa lokang bo ka
142_0918 ba na le mamello mamello
142_0919 ya mo nyalang ha rakgadiae
142_0920 ya lokileng ho ya sa
142_0921 pusat statistik provisionally
142_0922 setereka sa maseterata wa pretoria
142_0923 ho a ka ba le
142_0924 le sa kgetheng mofo ho
142_0927 ka ho re ho na
142_0928 tshwaretseng sa boto se sa
142_0932 o so ka o fetolelwa
142_0933 north atlantic ocean
142_0934 o ka re sethothokisi se
142_0935 di re ke sonasesosa sa
142_0936 final resting place
142_0937 ba ke re o nkgumamele
142_0938 a le d e le
142_0939 faatshe ba le mokatong o
142_0940 current account deficit
142_0941 le ntatemoholo mmamaema le ramaema
142_0942 diteboho ho metswalle le bomphato
142_0943 tsepamisa maikutlo haholo mopeletong le
142_0944 ho lekana ha maloko a
142_0945 e se e tshwere o
142_0946 ne e le moetlo o
142_0947 bomenemene le ho hokahana ka
142_0948 ka beile le ya ho
142_0949 ba dikgotswana ba se ba
142_0950 o ke ke wa ba
142_0951 le tjhesa le le ka
142_0952 soweto e ne e na
142_0953 referense ha ho se ho
142_0954 ho re a ke ke
142_0955 ba arola ho ya ka
142_0956 ngotse ba ikopela ho ya
142_0957 ho tsotellwa o di mamelle
142_0958 ba ikgathollangka ho ithabisa ka
142_0959 manol lwa ka bo tlalo
142_0960 di na le kgahleho ya
142_0961 mmidimidi oo ho ne ho
142_0962 lemotsotso ho ya kamooseroki sesusumetsehangkateng
142_0963 se sa ka sa itshwara
142_0964 ka bophara le ho bopa
142_0965 a be le phehisano le
142_0966 oxford university press
142_0967 itwanela ka ha a ne
142_0968 ke mohlohlwa o rapame se
142_0969 bo ke ke ba fola
142_0970 mootlwana wa moma katibanyana ya
142_0971 ya ho falwa le ho
142_0972 ngwanelajakane a ba a timellwa
142_0973 a ka a mpotsa ke
142_0974 ka kgang ha ke re
142_0976 o ne a rerisana le
142_0978 wa tlhahiso ya lenanetsamaiso la
142_0979 sa fellang e ka ho
142_0980 pooneng ha o se o
142_0981 se sa thuswe ke moemedi
142_0982 ke ne ke le manganga
142_0983 mafubedu a re tlere setebele
142_0984 a bokolla seboko se hlomolang
143_0001 sebeditswe le ho lefuwa ka
143_0004 ya sa lleng o shwela
143_0005 sa atise ho ba ya
143_0006 mohlomphehi boiyane bo bokaalo ba
143_0007 e re ka ha ho
143_0011 sa merero ya phetiso le
143_0012 nations high commissioner
143_0014 ke ne ke sisinya ho
143_0015 wa dikarata ha ba na
143_0016 le ya ho ipopa ngatana
143_0017 ba sa bolayane ba a
143_0018 tjhaka le bomatowane ka leboya
143_0019 average annual rainfall
143_0020 thiba a ba a mo
143_0021 ho nyamela ha dimela le
143_0022 dikonsarete ho ne ho se
143_0023 mahlakore a keneng konterakeng le
143_0024 ho rafa e phethwang ekasita
143_0026 native american tribes
143_0028 le mokopi eo ha ho
143_0029 leqheku ho tsofala le ratang
143_0032 nkwa e rometswe ha e
143_0034 south african government
143_0035 ke ha re sa mo
143_0036 yellowstone national park
143_0041 tswelopele ba re a dumellwe
143_0043 e sa phutoloha ba na
143_0048 ha ke re o sa
143_0049 le dibukana ha di na
143_0050 lesira le le pudutswana la
143_0051 a simolla ho nona mohaditsong
143_0052 anke joyene ya dilemonyana e
143_0053 le ho lekolwa ha ho
143_0054 sebo peho ka b o
143_0055 ne a re monokotshwai ha
143_0056 bra t o rekile senomaphodi
143_0057 ke ke sa o putsa
143_0058 ne a mo ja tsome
143_0060 o sokolotswe le ha ho
143_0061 ba ikgantsha le ho ba
143_0062 ba batsho ba ne ba
143_0063 le ho se tsotelle ha
143_0064 thusitseng o ne a le
143_0065 etswe le ditsebi di a
143_0067 main sequence stars
143_0068 e o tsieditse e o
143_0071 ba ho pholoha le ho
143_0072 bafu le dumellang ho patwa
143_0073 boikamanyo e se e behang
143_0077 sereledi a phoqeha ha a
143_0078 hloohongabaa re sihla a mo
143_0079 ba badudi ba saruri ba
143_0081 phetho ke tu le ha
143_0082 ba ne ba loha leqheka
143_0083 le ho nyediswa ke dirathana
143_0084 ho nalo a be a
143_0085 roba dipelo he moradia lebajwa
143_0086 ho kgohlela ho sa feleng
143_0088 le fihlellehe ho ya ka
143_0089 a re ke mehlehlo ya
143_0090 ho ba lebella le ho
143_0091 ho nehwa tlotla e mo
143_0092 articles containing proofs
143_0093 o mofubedu o phatsimang le
143_0094 di botse e ya kae
143_0095 o ne a ntse a
143_0097 sa yang kerekeng e le
143_0098 ka hodisang dipoelo ka ho
143_0099 ha ba re ho se
143_0100 o se ke wa ntuba
143_0101 la ho pepa le eteletswe
143_0102 mothendari a ka phumola ho
143_0103 e le ho utulla le
143_0104 a absa fnb nedbank a
143_0105 ne ba bonesaka ho besa
143_0107 hlophiswe le ho hasanngwa ho
143_0108 ho ntjwetsa dife na jwale
143_0109 ho ingamangama ke le bule
143_0110 nkgolwe ha ke re ke
143_0112 di na le ho hlopha
143_0113 le boyeneng a hlaheletse ka
143_0114 ya ho thaotha le ho
143_0115 le tikoloho eo ba phelang
143_0116 se sebetswe ka le ho
143_0117 eo o e kolotwang ho
143_0119 ke kodua ya masetladibete ee
143_0120 o bopilweng ka bokgabane le
143_0121 ke lehe ha o rwale
143_0122 nthakemo eo re buileng ka
143_0125 ditjaka a sa jese thweetsana
143_0127 leihlo le fahlwa le shebile
143_0128 susumeditse borakgwebo ho bula dimmotjhara
143_0131 ha di eme di botse
143_0132 ho ya di fa bomabalane
143_0133 mose wane ho meedi ya
143_0134 eo ba e balang ba
143_0135 re ka ha o ne
143_0137 million metric tons
143_0139 a mo sebela o se
143_0140 le le ka marung ke
143_0144 hella nehelanong di sebe disitswe
143_0145 ya ac jordan e bitswang
143_0146 ha o re o ahlamisa
143_0147 se e totile o ne
143_0150 ne e le kgahlano le
143_0152 million years old
143_0153 morenengha ho etellwa morenapele mohlomongha
143_0154 ho ke ke h a
143_0155 itshwarisa be ke ikwalle ho
143_0156 le ho epolla bokahodimo bo
143_0157 romellwa melaetsa e mo hlekefetsang
143_0158 le ha boraditaba masedinyana dithelebishene
143_0159 thotwana ho ngala ho thoba
143_0160 motjhine o ne o se
143_0161 e lokelwang ho tshohlwa ke
143_0162 ka sekgethe ha ke ne
143_0163 la monnae lebaqolotsi o ne
143_0165 ha o no tlohelwa ho
143_0166 maipato e ne e le
143_0167 beehetswe ka thokobakeng sa ho
143_0168 horizontal gene transfer
143_0169 ba kgarume ba be ba
143_0170 le re fihlise re bolokehile
143_0171 ho se fokotswe letshwao le
143_0172 ho betlwa ha mabala a
143_0173 ha re re re qhwaolla
143_0174 mario kart
143_0175 dikeledi ha ke re ke
143_0176 ho rora ha helikopotara e
143_0177 rera ho mmolaya ka ha
143_0178 profeshenale wa bonono ba tshwanelhileng
143_0179 la boeletsi ba kadimo ya
143_0180 ne e kenyelleditswe ho ba
143_0181 le kgothalletse boinehelo le boikitlaetso
143_0182 lokelang ho hlahiswa ke baithuti
143_0183 bahatsa ha ba nyetse ba
143_0184 idimola kgafetsakgafetsa e le mopoto
143_0185 e ne e se ho
143_0186 formal diplomatic relations
143_0187 carnegie mellon university
143_0188 e a behelwa ho o
143_0189 le malwetse a sa feleng
143_0190 ne ke sa re ha
143_0191 le lesoba le lenyenyane ka
143_0192 a mo laimela a mo
143_0193 a re o ikgutlisetsa o
143_0194 ka dikotlolo ha le ina
143_0195 ba bamemuwa makhing wa bahlomphehi
143_0196 se kgethollang makasineng se bolele
143_0197 ya ho tshwasa dihlapi o
143_0198 kgutshwane bahlahlobi ba lekodisise hantle
143_0200 a re phephisa boholong ba
143_0201 ka boikemelo e sa itshetleha
143_0202 ho se hlalosahobane bonneteng ha
143_0203 monga mobu a ka ya
143_0204 re o mo ja a
143_0205 primitive recursive functions
143_0206 early iron age
143_0207 di springbok ka ho ba
143_0208 e ne e le seqhenqha
143_0209 ya turfloop mekete ya ho
143_0210 ben nene o amohetse kgau
143_0211 o ke ke wa kgolwa
143_0212 e boetsa e na le
143_0213 o se a e kgwathile
143_0214 e sa tsamaelaneng le ditshwanelo
143_0218 o kgotsofale ho re lepolesa
143_0220 o ke ke wa etsiswa
143_0222 fundamental physics concepts
143_0223 ho oo ho fellwang ho
143_0224 ho totobatsa ditso le dikamano
143_0225 nnyeonyeo o bitsa lebitso la
143_0226 mahlale le theknoloji ho ka
143_0227 ho ya ka tjhebo ya
143_0232 ba ba laelang le ba
143_0233 ka lengope kgidi ya boi
143_0234 ho ya ka hlokwana la
143_0235 re sejana se setle ha
143_0237 ha di a tshehetswa ho
143_0239 lebelwe e ne e le
143_0240 ba ke ba ba ithaopela
143_0241 ne re ya ka nnqeng
143_0242 ho e maha reng e
143_0243 wa yunivesithi le molemong wa
143_0244 a tsweretse mahlo ao bofubedu
143_0245 e a apesitse ho phema
143_0248 narrow gauge lines
143_0251 boikutlo boiketlo le ho o
143_0254 le tsietsing e tshabehang ha
143_0256 felehetswe ke tjheletana ya ho
143_0258 ne ho ithabiswa ka metjeko
143_0260 e bapetsweng ke mopresidente wa
143_0262 ba mabatowa ba teanang le
143_0263 ya ho tshwarelwa ho leswe
143_0264 a sa topalla boikutlwahatsong ba
143_0267 ha a a hlakelwa ke
143_0268 la bataung traders qwaqwa ke
143_0269 ngwanangwanake o tswere ya ditswere
143_0270 ho se ke ha lwanwa
143_0272 ha a le d e
143_0276 clarify date march
143_0277 ka kotlo difaene le dikotlo
143_0279 be o tshetswe ke bannga
143_0280 ya ho suthiswa ha baipehi
143_0281 di a sitisa ka ha
143_0283 green bay packers
143_0284 iv ka ho hokela ka
143_0285 ripoto eo e se e
143_0286 o ka ya itefela wa
143_0287 wa matona a robong ho
143_0289 ke kgitlehang dibete ke boitshwaronyana
143_0290 metsikapa e mo shapang ho
143_0292 great rift valley
143_0293 ya seterata sa setoro sa
143_0295 ho mmona ha ba se
143_0296 gross domestic product
143_0297 a hauhelwe a fuwemosebetsi o
143_0298 ho ya ka temana ya
143_0299 tb di ka ba le
143_0300 a fe mmamolete phiyo e
143_0302 personal income tax
143_0303 ya palohare e ne e
143_0305 di lokisitswe ha ho balwa
143_0306 wa ntsholela hanghang o re
143_0308 le melemo e tlisitsweng ke
143_0309 ke ke tsalefuwa gemskemorerowathusoyabongakaoreretswengbasebeletsi ba
143_0310 ke ho se lekalekane ha
143_0311 ba silela motoho kalona a
143_0312 bakudi ba sa kgathatseng ie
143_0316 ke ne ke re ha
143_0317 le ho se di apare
143_0318 o ne a itjele ka
143_0319 ya tlhalo ba romele afidaviti
143_0320 clarify date december
143_0321 di ne di mo hopotsa
143_0323 asiti dipi sebolaya dikokonyana le
143_0325 yeo re ka e fang
143_0327 a dipudulwana a dimenerale ho
143_0329 ha e utlwahale ha e
143_0331 a tshwaetsang a tsamaiswang kedijo
143_0333 le dithelevisheneng ho ne ho
143_0334 se ke ke sa kodumela
143_0336 e simolla lekwa e yo
143_0338 jorge luis borges
143_0339 aphela o photjhotse ha e
143_0344 ka moahi wa joburg ho
143_0347 ba foromelang ditene nokengya kgopjane
143_0349 o re ho etsahalang hantlentle
143_0351 dihlahiswa non proliferation status of
143_0352 pheko ke mosotli wa meya
143_0354 o se nyahladitse o ne
143_0356 e se na mosola eke
143_0360 ha di ame popo kappa
143_0361 ke ka mo hlala ke
143_0364 be a di hlatswe a
143_0366 p na ho na le
143_0369 ne ba sa tshabe ho
143_0371 lengau le ne le le
143_0380 bo ma hareng ba ho
143_0381 petroleum exporting countries
143_0382 le bontshitshweng setshwantshong se ka
143_0384 a be le yunifomo eo
143_0385 ba re ke please call
143_0387 tsitsitseng ya ekonomi ka ho
143_0389 mpehile merebele e le ka
143_0391 le ausi ha ba a
143_0392 rugby world cup
143_0393 ka ha ho e na
143_0395 a qotsitsweng a ne a
143_0396 ho ba ka ncop ke
143_0397 nnetee nee yeere ha ke
143_0399 sekgutlo e ne e se
143_0400 se o lokile ba crime
143_0403 a se ke a ikutlwusisa
143_0404 o ne a itulela hahabo
143_0405 ha o re ha o
143_0406 ba batsho le ba basweu
143_0407 a koduwa eo e nyarositseng
143_0408 di jehang ba kgonang ho
143_0409 e ba o se ke
143_0410 sulafalletswe le ho ja ho
143_0413 hard disk drive
143_0414 se ke itshwetse mokgubu ka
143_0415 ho ameha ketsahalong ya botshwasi
143_0416 seroki sa morenengha ho etellwa
143_0417 a ba a leba kamoreng
143_0418 foreign language film
143_0419 polymerase chain reaction
143_0420 e ba ruisitse maqheka a
143_0421 phefumoloho ho kgohlola le ho
143_0422 ba kopanyang ba kopangwa ke
143_0423 disebediswa le ho fokotsa bofuma
143_0424 sa phetla le ho phetla
143_0430 ya dikgetla ho kutwa ha
143_0431 ya ho ba le ditshwaetso
143_0433 le di arv di ka
143_0434 butse mokete ka pina ya
143_0439 ka moamohedi wa setswakantle ho
143_0440 ka motswetseng ho sa hlonngwe
143_0443 ne a utswitse diphahlo lebenkeleng
143_0448 ke lesira le le pudutswana
143_0451 career home run
143_0452 be le tshwano ha ho
143_0460 american film producers
143_0462 ba tshedisehe o na le
143_0463 se o le ntata nnyeo
143_0464 mokgatlo oo e seng wa
143_0470 o se o badile palekgutshwe
143_0471 ho fepa le ho nwesa
143_0472 ne e le mpho ya
143_0473 e ne e se ka
143_0475 e rerilweng ka lekgetlo le
143_0476 tshwanang le mekitlane ya thepa
143_0477 dipuisanong e ne e le
143_0478 o ikgothatsa ka ho re
143_0483 in die land wat die
143_0485 e le tshesane sa theka
143_0486 ho south african revenue service
143_0493 di a mengwa ho thonya
143_0494 ke hora ya bohlano thapama
143_0495 pheo ke ho hlakisa ka
143_0498 diselefounu di ka utsuwa ho
143_0499 lengolo la semmuso mohlahlobi o
143_0501 dilomo meru e kopaneng diphulana
143_0503 di a bela di a
143_0506 re ba hlalefile senase pakwa
143_0507 a borikgwe bo botsho kausu
143_0509 a sebetsa ka boyena ho
143_0510 motho ofe kapa ofe ya
143_0513 notable examples include
143_0514 se jara boikarabello ba sena
143_0516 mo qhoqhang ho intlafatsa ho
143_0519 ho phatlalla le rephaboliki ya
143_0521 ya be e re elellisitswe
143_0522 mareo le mererong ya diprojekte
143_0525 le ne le se le
143_0526 ne re ka ra bitsetsa
143_0530 ananelwang le ho tlotlwa dibakeng
143_0533 h tswala tjheleteng ya tsetetsweng
143_0536 serobe phiri e se e
143_0542 se a kwenehetse kgarebe ya
143_0543 lora a haola meruemetala ya
143_0544 la jse le ho rekisetsa
143_0548 ho se ho fanwe ka
143_0550 late bronze age
143_0551 ha di silafatswe ke ditshintshi
143_0554 ya kutlo hcps boenjinere ba
143_0556 ho felehetswa ke memorandamo le
143_0557 prince edward island
143_0558 michigan state university
143_0559 strategic air command
144_0001 ha le ne le nyalana
144_0002 ne a se a eleditswe
144_0003 lepetjo la dihlomo la la
144_0005 cite journal author
144_0006 ya kgethuweng wa manyalo ho
144_0012 eo ngcobo nkabinde le skweyiya
144_0013 katiso di so ka di
144_0014 united kingdom parliament
144_0015 ke o inele matsoho metsing
144_0018 molecular orbital theory
144_0019 e f le g ha
144_0020 letjholotjholo mmamaqheka e le ka
144_0022 hiriswangmotsaneng o ka thokonyana ho
144_0024 ho beleswa ho phaellang ho
144_0026 atehileng le tsepameng nlheng ya
144_0031 disane le bodiponkonono banaba hlodiyang
144_0034 daar is baie klinieke in
144_0035 broad based black economic empowerment
144_0036 la phytosanitary ho nppo ya
144_0040 dikgaretene mekgabiso ya ka matlung
144_0042 le pansalb doe le dpsa
144_0044 bolokwa khomputareng bakeng sa direkoto
144_0047 sa le tshwantshe le la
144_0048 dumeletsweng medicine price list mpl
144_0051 le ba angwang le ho
144_0056 o ne a sa utlwusise
144_0057 qwaile ka ha a ka
144_0059 le tshebediso ya matshwao a
144_0061 ya dikantoro office administration ka
144_0062 science fiction writer
144_0067 adv johnny de lange ke
144_0069 a ikemetse a ikgannale ho
144_0071 nuclear chain reaction
144_0073 ka peipi ya kenyomoya e
144_0075 new democratic party
144_0076 o qela ka qenehelo le
144_0077 bonkeka ba di tlwaela kapele
144_0079 karete eo o memelang ba
144_0080 ho akgellwa ie lebollo ka
144_0081 e hlahang sehlomathisong sa a
144_0082 ho be ho petsohe le
144_0083 ha ke bo labalabele le
144_0085 tsitlallela ho tlisa katleho ya
144_0086 wa batsoeneng eo kadikgomo a
144_0087 nthuse joo hi a kgwatjhoha
144_0088 ho bapatsa le phapanyetsano ya
144_0089 a atileng a tb a
144_0094 la sesole la bothori le
144_0095 ke badimo ba mmontsha leru
144_0097 israel defense forces
144_0099 league baseball team
144_0102 ha re hle re di
144_0103 ho na le tlhokeho e
144_0105 ho re ke kereiti yabohlano
144_0106 a morafong oo a bea
144_0112 a foreshe a bonojana ho
144_0115 tshwaya ke maikutlo a motshwayi
144_0117 a ntshahlooho ka dikobong a
144_0119 boronkhaetisi le nyumonia ho e
144_0120 wa difate o ka nqane
144_0122 british foreign secretary
144_0125 khomeshenara wa dikano ke ho
144_0126 le ho thunthetswa ka ho
144_0128 le tshibollo e fihletsweng ka
144_0130 ke be ke wele ka
144_0133 california state university
144_0134 qabang ya ka le ba
144_0135 di kakatwa ba ne ba
144_0138 ho na le ho se
144_0141 ya my wellness ya webosaete
144_0145 supileng sehlekehlekeng sa robben ha
144_0146 le ho re fotseke ntjeng
144_0148 sa rutehang ya bolotseng ya
144_0152 lethoko o ne a tadimane
144_0153 sepikara ke motlotlo ho tlaleha
144_0154 ne o re direkoto pehelo
144_0156 ha metjhini e se e
144_0157 dibeso le dikhemikale le ho
144_0158 wa monahano daekramo tjhate e
144_0163 president barack obama
144_0164 e tebileng ya phetolelo dipuong
144_0167 ya vii c le ya
144_0172 ho kgwathwa ha konopo ya
144_0173 e balletsweng e le e
144_0174 states armed forces
144_0175 jwaletjena o ne a se
144_0176 ke ha a shoba mathobisa
144_0181 topological space
144_0182 o ye a re ngwanamahana
144_0184 o se a re ptjangptjang
144_0185 otto von bismarck
144_0186 ne a re sejana se
144_0192 ba nkela motjhesi koloi ya
144_0194 ka be o di sebeditse
144_0195 ha ho bapiswa le ho
144_0196 le ne le le lekgubedu
144_0197 ho bafani ba tlhokomelo ya
144_0198 application programming interface
144_0199 ho ya ka kutlwusiso ya
144_0201 soviet socialist republics
144_0204 o qakile ke ha ke
144_0205 e qaqisitsweng sehlomathisong sa a
144_0206 le ya metjhining e betlang
144_0207 di bapisa ie ho di
144_0208 captain james cook
144_0209 semomotela pabala twadi e padileng
144_0214 o ke ke wa kotjwa
144_0217 pheha o bohale le ho
144_0219 single transferable vote
144_0220 mo rekela motjhini o rokang
144_0222 kgutsitse tu yaka ha ho
144_0225 baithuti ba mophato o mahareng
144_0226 internal combustion engine
144_0229 le lera la lefufuru lefufuru
144_0232 wa kgodiso eo ntataemafikeng a
144_0233 ha ke ne ke pepile
144_0235 ba mohlomphehi seeiso mohai slp
144_0237 ha ba hopolamora eo wa
144_0238 ha e le bankeng e
144_0239 ha a se a bolaile
144_0240 nuclear weapons program
144_0241 o ne a lebohuwa ka
144_0242 o se o lahlehetswe ke
144_0243 e ne e le modumedi
144_0244 a lohilweng ka therisano le
144_0245 ba kwetliswang le bakwetlisi bakwetlisi
144_0246 boholoholo ho ne ho na
144_0247 sa ba utullang dipatilweng ho
144_0248 ba di embryo di ova
144_0249 ke toloketswe le ho hlalosetswa
144_0250 mahlaba ha ba mmolella ho
144_0251 re o se a di
144_0252 ba ngodise sehlopheng sa bolo
144_0253 le se ke la nkella
144_0254 le ka la re arohanyang
144_0255 sa itekanelang ba tsofetseng le
144_0256 ho ka ba jwang ha
144_0257 ha e sa le yo
144_0258 church turing thesis
144_0262 di se di le mothating
144_0263 a se tlohellwe a ntshe
144_0266 o mogn oo ba o
144_0267 soviet red army
144_0268 early church fathers
144_0269 ke mokgathala oo ke sa
144_0270 boele o fapose le ho
144_0271 la re ke le nyaye
144_0272 ha e a ka ya
144_0273 re ke mo hloile hampe
144_0274 wa dulela ho rabaka tje
144_0275 he e ye e mmalehele
144_0277 le meho polo ho lekaneng
144_0278 metal gear solid
144_0279 se sa lekanngwang se ke
144_0280 di mesana ba ka o
144_0281 ba matshwele a baqobelli ba
144_0282 ke thabele manyofonyo ao o
144_0284 ya deedsweb ka ha ho
144_0285 ke sehwa ke letswalo ha
144_0286 ka dikelello le ha e
144_0287 ho tliswa ke tshebedisanommoho e
144_0288 le lefatsheng la komello mahwatateng
144_0289 kope ho o fa setifikeiti
144_0290 north west company
144_0291 la ho hlahloba la rebate
144_0292 mosuwehlooho a ne a mema
144_0293 ha ke ne ke re
144_0295 e le bahlodi e le
144_0298 ba di faetseng makgistrata a
144_0299 hlomamisa dikomiti ho ya ka
144_0301 palesa o mo sheba ka
144_0309 ka mawala a hokahantsweng a
144_0312 o atlehe e le ka
144_0315 tu ka ho panya ha
144_0320 na e be le a
144_0321 ne a sa itlwe ka
144_0322 ba nebasena boipuello o ne
144_0326 ho ya ka merabe moetlo
144_0327 wa bodumedi gospel o sa
144_0328 established diplomatic relations
144_0329 e ka hirisetsa khamphani ya
144_0331 a le lemo tseleshome le
144_0332 e sebeletsang e ikaraballang ho
144_0335 le ho nkelwa dikoloi ha
144_0336 o ntshofaditsweng a na le
144_0337 ho buuwang ka yna e
144_0340 o qeta o be o
144_0341 sekete ya thelevishene e kwalehileng
144_0342 hangata ka ho nepahala le
144_0345 e be ha e ne
144_0347 le mane ho na le
144_0370 tharo a b le c
144_0419 peo eo a e jetseng
144_0433 mo hemela a ba a
144_0442 a o hlwang setha o
144_0497 provenseng eo ha ho se
144_0524 seo ke lekang ho se
144_0536 re a se ke a
144_0539 o tle o se ka
144_0553 ho ba la tahlehelo ya
144_0570 ka ho re o se
144_0585 ne e ka ba bo
144_0598 di e ja e le
144_0599 ha ke se ke sa
144_0643 mmotsa a re o ne
144_0688 se ke wa ya le
144_0693 o ne a e na
144_0698 ha e ba ho na
144_0740 a robale ka dieta o
144_0747 o se a ne a
144_0753 le ho re ho ya
144_0756 ne e se e sa
144_0762 o ne a lapile ho
144_0779 bele o se ke wa
144_0785 dikgohola difefo dipula le marole
145_0001 kgamahaholo o neabona e lentho
145_0003 eo a qetileng matsatsitsatsi a
145_0004 ya mmokelli eo wa dikoloto
145_0005 ntlokgolo ya icd e pretoria
145_0007 ha o ne o re
145_0008 e ka bolokwang e tswella
145_0010 ya mmakoma a sa lobe
145_0011 a maholwanyane e be a
145_0014 di fetolelwe ke mofetoledi ya
145_0015 ahile london le moahlodi arthur
145_0016 ho ikopanya le bafepedi ho
145_0017 ne a hlabile dioka e
145_0018 e feletswe ke ho ba
145_0019 verify source date
145_0020 leno e ne e le
145_0021 ba ne ba hlohlelletswa ke
145_0022 sehalo le se taele di
145_0023 le ho phehisana le mafatshe
145_0024 nkong ke molebedi eo ho
145_0025 ho ya ka bolekodi ba
145_0026 o ne a le makgenefanyana
145_0027 nakongena mohale o ne a
145_0028 bo ne bo sa amohelehe
145_0030 sa kgahlehe e le diqhwala
145_0031 a belaela ha atshwanetse ho
145_0033 academy award nominations
145_0034 day saint movement
145_0035 a tsielehile e le ka
145_0036 se manollwa ka bo tlalo
145_0037 tlaleho ho ama le ho
145_0038 ne a se a roballetse
145_0039 ya eketseha ka ho bonahalang
145_0040 professional sports teams
145_0041 ba ke ke ba ba
145_0043 ho se tsotellwe ho se
145_0044 podumo ya moemanotshi ya ba
145_0046 ha o sa di hlokomele
145_0047 kgutlong sa mmila o kenang
145_0048 ba di emelang baemedi ba
145_0049 wa kgwedi le kgwedi o
145_0052 okosejene o ke ke wa
145_0053 ho kenyeleditse le tekanyetso e
145_0054 lokolla le ho re ho
145_0057 tshimolohong o tsebile e sa
145_0058 se kwetsweng ho ya ho
145_0059 los angeles area
145_0060 se lebelletsweng k h r
145_0062 ho na le mahlasedi a
145_0064 ka ho tsuba boikwetliso le
145_0065 ho hlahloba le ho ntjhafatsa
145_0066 ho ba le phihlelo ya
145_0067 wa se ke wa ba
145_0068 a se hatoha a se
145_0069 ba ne na ye ba
145_0070 oo mohlolo o ke ke
145_0071 matleng le mananeong a matlafatso
145_0072 e be di na le
145_0073 ha e le ho rothisa
145_0074 le se tshohane le re
145_0075 ka ho sisinyeha ho hosesane
145_0076 le be le ditsebo le
145_0077 ha e ba le tlokotsi
145_0078 mohwehadi ha di thabiswe ke
145_0079 le ho tsetela le meruo
145_0080 le diqhwaha le dipudumo ho
145_0081 a sa hlapa ha a
145_0082 ne e opa a nyokgoloha
145_0083 ke advocate le ha ho
145_0084 ha le boulelle sowana ba
145_0086 e tla be e le
145_0087 le ho bohehang ho sa
145_0088 o ne a boetseatshwerwe ke
145_0089 ne a tadimeha a se
145_0090 le he e ye e
145_0091 o re bopileng ke a
145_0092 chicago white sox
145_0093 ka letsholo la ho baballa
145_0094 e kathoko ho tlhopho e
145_0095 a ke ke a tata
145_0096 alwana ya kgumamela ka ha
145_0097 okametseng a ka hokela taelong
145_0098 le ho mo qhobella majwe
145_0099 booki di lefelletswe kemosuwehlooho tsholo
145_0100 di na le ditsebo le
145_0101 tatello le karabelo phehella ho
145_0102 di romeletswe ka thelefekse di
145_0103 ke maranran g a fepelang
145_0104 wa ho tokafatsa bo tlokotsebe
145_0105 british overseas territory
145_0106 le dintwa vmme e ne
145_0107 ho hlotjhwa ha ba di
145_0108 bo botlo le bo ka
145_0109 o tswile kotsi e mpe
145_0110 dikgaolo le ho re hlahisetsa
145_0111 phemiti ya ho kganna ya
145_0113 motjekong bashemane re ne re
145_0114 di boletseng e sa fokotse
145_0115 ka sekotlong sa phakiso le
145_0116 di anti retroviral le ya
145_0117 kgutle a tulatula moriana oo
145_0119 efatshe wa rakebi selemong se
145_0120 ha se a ralwa ka
145_0121 nkgetheng la kamohelo ya ho
145_0122 ha ho na ho ba
145_0123 mebileng di bolawa ke dikoloi
145_0125 e ne e le nonyana
145_0126 le bonase ya kheshe eo
145_0127 se e le ho ka
145_0128 lelapeng ho ka ba le
145_0129 molamu o kopane le tshepe
145_0130 ka ha o se o
145_0131 oo ho ne ho le
145_0133 ha se etsahale ka ho
145_0134 di sa fohlwa o a
145_0135 ho ya mo nkisa mokotla
145_0136 le talente le ho ba
145_0137 re phahamisitswe ke ho kgwathwa
145_0138 ke re ho ya ka
145_0139 o itshebeletsa ho ya ka
145_0140 oo di so ka di
145_0141 ha o se o ngodisitse
145_0142 le be le mo dikelle
145_0143 kgothaletso ya boikgwantlello le ho
145_0144 ke ba arolelanametsi a yonale
145_0145 dijonyana snacks a tsholwa ka
145_0146 ho na le letamo le
145_0147 ho ya ka mosebettsi wa
145_0148 le dikokonyana di na le
145_0149 di le matlapa di thella
145_0150 screen actors guild
145_0152 bo bo lelele le bo
145_0153 ke ngongorehe ka ha ke
145_0154 ho ja papa ya lephotho
145_0156 mohloki ya kgesehang kgutsana le
145_0157 a le tipatipa ho ya
145_0158 eo o sa e utlwisiseng
145_0160 wa ho lahlwa ha dikgwerekgwere
145_0161 supreme court ruled
145_0163 tsabona metseditoropong ho na le
145_0164 mo hlahetseng mo romelle karete
145_0166 ho se balehe le ha
145_0167 samina o imme ya nyarosa
145_0168 boikutlo ba ho tshepana pakeng
145_0169 ho ba le rejistara e
145_0170 wa boitokisetso le meralo ya
145_0171 bowatla ka ho mo letsetsa
145_0172 eo ha e ka kgaoletswa
145_0173 o ne a kgabelletswe ka
145_0176 meloko ya ka moso e
145_0178 ho ya ka makgoro le
145_0179 science fiction convention
145_0180 se tshwasang dihlapi ke sekepe
145_0181 be ba se ba ho
145_0182 d e le f ba
145_0183 american football conference
145_0184 ba le pin ya ho
145_0187 burundi comoros sudan haolo ho
145_0188 a hamme e tswele le
145_0189 le be le dikele na
145_0190 gibbs free energy
145_0192 ha o ya ho e
145_0193 a ne a le bodutunyana
145_0194 ka sms sms benefit lookup
145_0195 ba itokisa ba hlomela ba
145_0196 balaodi le bahlakisi ba dibuka
145_0197 majwala a le tshosa ka
145_0198 ba matha ka dinkgo ho
145_0199 late eighteenth century
145_0201 hloko o nto araba dipotso
145_0202 ba ya phasaphasa e tjhaile
145_0204 madison square garden
145_0205 ho fopha ho sututsa ho
145_0210 e yeng e be ya
145_0211 ho re moreneng ho hlahile
145_0212 a qela holeoto o ne
145_0217 ka ho lemala o le
145_0218 tlamehang ho ho ya ka
145_0220 ha ke e hloke le
145_0221 bokgotsing ba ke ke ba
145_0223 ka ho ya ka ho
145_0225 re hoetsahetse kgoba e se
145_0228 hela ke itlamela ke le
145_0229 english civil war
145_0230 ka ikela masihlwane o nea
145_0232 e le o unneng ka
145_0233 re baketse maqeba a ke
145_0235 civil class
145_0237 ha mofammere a mo eletsa
145_0238 watshomong ha a ne a
145_0239 ke basebeletsi matloleng a dibenefiti
145_0240 leru le lefubedu t w
145_0241 chief executive officer
145_0244 wa kabo ya mangolo nqf
145_0245 le hamohlomong o ne o
145_0246 e mehlano ya dilotho ho
145_0247 seturupu se se kgubedu botlolwana
145_0248 e tlatsitswe ka ho phetahala
145_0249 bane ba hlahelletseng ka mahetla
145_0250 se mo ise yunivesithing o
145_0252 australian air force
145_0253 western roman empire
145_0254 o re ho a be
145_0255 phatladitse masedinyaneng dithelevishineng le dibukaneng
145_0257 thupa e kojwa e sa
145_0258 ha o sa se medisa
145_0259 ka ikutlwa ke tlalwa ke
145_0262 bo se fete leqephe le
145_0264 le lekalana la bongodi ba
145_0265 na le manyofonyofo a swabisang
145_0266 ho ya ka kutlwisiso ya
145_0267 a se a mo tlamme
145_0268 cite press release
145_0269 ho etsa bonnete ba hore
145_0271 sekreste mohlolohadi o na le
145_0272 ha o pepeneneng o ka
145_0273 sa thapiswake boikaketsi bo kgemang
145_0274 re qhau a mo sudubanyafatshe
145_0275 unrestricted submarine warfare
145_0277 le ha e na le
145_0280 ka ha ho ne ho
145_0281 e ho na le methwaela
145_0282 mmampontsheng ha o lelemenemene le
145_0284 pope pius
145_0287 ho ithuteng le ho rutweng
145_0288 le adv j de lange
145_0289 ya remittance advice ya nothisi
145_0290 american football league
145_0291 o ka ba wa ya
145_0293 wolf whistled le ho betwa
145_0294 ho ya ka dikarolwana le
145_0295 mokganni eo o ne a
145_0296 hose phahle makunutu abonaj k
145_0299 inspector of mines ciom ya
145_0300 khompuyuteng a ke ke a
145_0302 re di etse mohatla kgwiti
145_0303 lekgethi o be o le
145_0304 re ha o a thaba
145_0306 na ba e rutilwe ke
145_0307 le ho ya kamolao wa
145_0309 hiruwa ha ka potefoliong ya
145_0311 o se tlodise ho ja
145_0312 le ho tlanya typing o
145_0313 tsejwalo a ba a re
145_0314 tiehiso ya ho phethela dikarolo
145_0316 ya mmofu e kgonya mokgwabong
145_0317 se ka mpitsa moratuwa wa
145_0318 mixed martial arts
145_0319 tsotella le ho phedisana ka
145_0320 ditshisinyo di ka kgonahala ha
145_0321 camp david accords
145_0322 o ne a re o
145_0323 ya lejwe la ntatao eo
145_0325 sepheyo ke ho nyalanya boitsebelo
145_0326 e ya hatiswa e saenwe
145_0328 union member economies
145_0329 ya a a nkellang hloohong
145_0330 nthe hee ka ka ka
145_0331 di so ka di rekiswa
145_0333 wa thoteng tlhophollo le tlhaloso
145_0337 a ka monyeha letlalong ka
145_0338 ne bo hlomola ho le
145_0339 ho ya ditameneng shu ha
145_0340 a sa kgarumemmakarabelo motsotsong oo
145_0341 le mmamoruti ya mmoledi ke
145_0342 ba ka nthusang ho itholamorwalo
145_0343 ka ho ya moketjaneng ono
145_0345 o ke ke wa etsahala
145_0346 ya tsitsinngwa ke diheshana bomafisa
145_0347 mekotla ya mashala ka veneng
145_0350 etshweu e lebanta le letsho
145_0352 ho bahlokomedi le pontshahatso ya
145_0353 di ka qhalakanngwa le di
145_0354 ba chikano ya sireletsang le
145_0355 letona ka tumellano le letona
145_0356 khampani ya ba mmalwa e
145_0357 wena moetapele wa setjhaba le
145_0358 kgele a tsoha a tlola
145_0359 ya emia e na le
145_0360 eo ho ne ho sa
145_0361 ho bapiswa le ho a
145_0362 ha ba le phokotseho e
145_0364 sa le ka madungwadungwa ke
145_0365 senyehileng e senya thaere ya
145_0366 e dumelletswe ho ka eketsa
145_0370 o ne a ikete ho
145_0371 ho batjhana ba ka ba
145_0372 ba tsamaella ho ya boitshwarong
145_0373 ne a teane le ditshita
145_0374 public international law
145_0375 international criminal court
145_0376 nyamela ho ba ntidi ha
145_0377 hee ke re o nkgitlile
145_0378 mmetla o kgola o e
145_0379 o lakatsa ho tsebiswa le
145_0380 united states coast
145_0381 le tjhaba le dikela ba
145_0382 ya tuma ka ho reketla
145_0384 dipuo ho phatlalatsa le ho
145_0386 israeli prime minister
145_0387 haebe o kile wa fumana
145_0388 ka dinkgo ho ya sedibeng
145_0389 sa rena le ho rena
145_0391 ho se sireletsehe tshwaetsong ya
146_0003 ho ya ho ya ho
146_0007 ke badimo ba mmontsha leru
146_0009 israel defense forces
146_0011 league baseball team
146_0015 ho na le tlhokeho e
146_0027 tshwaya ke maikutlo a motshwayi
146_0031 boronkhaetisi le nyumonia ho e
146_0034 british foreign secretary
146_0037 khomeshenara wa dikano ke ho
146_0040 le tshibollo e fihletsweng ka
146_0045 california state university
146_0048 kgotjwa e le maoto mane
146_0052 b c d e ho
146_0053 ya my wellness ya webosaete
146_0058 le ho re fotseke ntjeng
146_0061 ke re o mo hlale
146_0063 internet service providers
146_0064 lethoko o ne a tadimane
146_0066 ne o re direkoto pehelo
146_0067 nakwana e re nengneng a
146_0068 ha metjhini e se e
146_0070 wa monahano daekramo tjhate e
146_0075 president barack obama
146_0076 e tebileng ya phetolelo dipuong
146_0079 ya vii c le ya
146_0081 ba ho se be le
146_0084 ho kgwathwa ha konopo ya
146_0087 jwaletjena o ne a se
146_0088 ke ha a shoba mathobisa
146_0093 topological space
146_0096 o se a re ptjangptjang
146_0097 otto von bismarck
146_0100 ya sa di hadikelang ho
146_0104 ba nkela motjhesi koloi ya
146_0108 le ne le le lekgubedu
146_0110 application programming interface
146_0113 soviet socialist republics
146_0115 mohopolo o hlahisitsweng moleng o
146_0118 le ya metjhining e betlang
146_0119 di bapisa ie ho di
146_0120 captain james cook
146_0129 pheha o bohale le ho
146_0130 ke mo tshabang ho nkgisetsana
146_0131 single transferable vote
146_0132 mo rekela motjhini o rokang
146_0133 ya dumelletsweng wa tlhakiso diofising
146_0134 kgutsitse tu yaka ha ho
146_0135 e se e le morwetsanyana
146_0138 internal combustion engine
146_0141 le lera la lefufuru lefufuru
146_0142 ho lebeletswe ho ya ka
146_0143 ke kantoro ya bongodi ka
146_0145 ha ke ne ke pepile
146_0147 ba mohlomphehi seeiso mohai slp
146_0148 coronary artery disease
146_0152 nuclear weapons program
146_0153 o ne a lebohuwa ka
146_0155 e ne e le modumedi
146_0156 a lohilweng ka therisano le
146_0157 ba kwetliswang le bakwetlisi bakwetlisi
146_0158 boholoholo ho ne ho na
146_0159 sa ba utullang dipatilweng ho
146_0160 ba di embryo di ova
146_0161 ke toloketswe le ho hlalosetswa
146_0164 ba ngodise sehlopheng sa bolo
146_0165 le se ke la nkella
146_0168 ho ka ba jwang ha
146_0169 ha e sa le yo
146_0170 church turing thesis
146_0171 asian financial crisis
146_0172 dibanka mabenkele a mabenyane dikgwebo
146_0173 studio le setsha sa transmishene
146_0177 ntshetsopele ya molao wa motheo
146_0178 o mogn oo ba o
146_0179 soviet red army
146_0180 early church fathers
146_0181 ke mokgathala oo ke sa
146_0182 boele o fapose le ho
146_0185 re ke mo hloile hampe
146_0186 wa dulela ho rabaka tje
146_0187 he e ye e mmalehele
146_0188 berne convention berne convention ke
146_0190 metal gear solid
146_0191 se sa lekanngwang se ke
146_0194 ke thabele manyofonyo ao o
146_0196 ya deedsweb ka ha ho
146_0199 ho tliswa ke tshebedisanommoho e
146_0200 le lefatsheng la komello mahwatateng
146_0202 north west company
146_0206 british armed forces
146_0208 ho re senolela mofehelo ya
146_0210 ba di faetseng makgistrata a
146_0213 palesa o mo sheba ka
146_0216 a kopanang le sekweta se
146_0218 e phethahatswe le c nkela
146_0220 ne di sa susumeletswa ke
146_0222 a be a hatise pasa
146_0223 sa lepoqo ha se kgutse
146_0231 ba tsheletseng ba thontshweng ke
146_0233 ne a sa itlwe ka
146_0235 re o kgopo le ho
146_0237 bonwang le ho ya ka
146_0238 ho ya ka merabe moetlo
146_0239 wa bodumedi gospel o sa
146_0241 e ka hirisetsa khamphani ya
146_0246 ho ekets boikgathatso ba ho
146_0247 le ho nkelwa dikoloi ha
146_0248 o ntshofaditsweng a na le
146_0249 ho buuwang ka yna e
146_0250 sa khiro se saennweng ke
146_0251 o di tsebise ka kopano
146_0253 sekete ya thelevishene e kwalehileng
146_0258 ke tsosa dibata masene ha
146_0262 oriental orthodox churches
146_0263 ho ewp e be ba
146_0265 mmutlanyana o ne a le
146_0267 a ne a ntseabua ka
146_0268 ha molwantsi a ne a
146_0269 wa tokoloho eo a e
146_0272 eo ka menahano e tiileng
146_0275 kotulo eo ba e behetsweng
146_0276 phousetara e shebehe e le
146_0277 di se di kgethilwe di
146_0278 dikobo le ho mo busetsa
146_0280 human development index
146_0281 pope benedict
146_0282 tharo a b le c
146_0284 ao o sitwang ho a
146_0285 bo sa lokang bo ka
146_0289 ya lokileng ho ya sa
146_0290 pusat statistik provisionally
146_0291 setereka sa maseterata wa pretoria
146_0292 ho a ka ba le
146_0293 le sa kgetheng mofo ho
146_0295 e ne e le sephankgahadi
146_0297 tshwaretseng sa boto se sa
146_0298 ya tswalehileng ya hotseng abokotswa
146_0301 o so ka o fetolelwa
146_0302 north atlantic ocean
146_0305 final resting place
146_0306 ba ke re o nkgumamele
146_0308 faatshe ba le mokatong o
146_0309 current account deficit
146_0310 le ntatemoholo mmamaema le ramaema
146_0311 diteboho ho metswalle le bomphato
146_0312 tsepamisa maikutlo haholo mopeletong le
146_0317 ka beile le ya ho
146_0322 matjhabeng e ye e be
146_0323 tsejweng ka kgalaseng eo motaung
146_0324 e theohang panama o inyanyaditse
146_0325 matlafetseng le e ntlafetseng e
146_0327 nyaya la koloba ditletlebo di
146_0330 lkhansele ya aforikaborwa ya diporofeshene
146_0331 peo eo a e jetseng
146_0332 eo o e kopileng o
146_0335 fihle matsohong a eo le
146_0336 soviet socialist republic
146_0337 e le wa dijareteng difemengkwana
146_0340 a radieishene yuraniamo le thoriamo
146_0350 mmadimpho siko ke re ho
146_0351 fumanehang sebakeng se bapatswang di
146_0352 kganahatswa ke boitelo le ho
146_0354 a o hlwang setha o
146_0355 zermelo fraenkel set
146_0356 ya boiphediso eo ho ka
146_0357 ha re di bolellwe re
146_0358 sa ngodisang ha ba a
146_0359 e ahang e buang ka
146_0360 ba e tjhaelwe monwang ke
146_0361 ke ya tefello e tobileng
146_0362 na haeno ha ba a
146_0364 ye di tlaleheng ho ya
146_0365 ba marena a engelane ditsebengho
146_0366 ho phethahala ho ya ka
146_0367 e le matahwa a mahlena
146_0368 modern operating systems
146_0369 ya ho ya ho e
146_0370 le ho se tshwane ho
146_0372 e bapetsweng ke moporesidente wa
146_0373 ya ka sehloohong wa phethahatso
146_0374 moso ke se iphumane ke
146_0375 mohau a nanabela lebokoso le
146_0377 eo ba ka e abelwang
146_0379 condensed matter physics
146_0380 leba mophatong le ho bolotswa
146_0381 ha esale ke tswalwa ke
146_0383 le dibohodi di kgothaletswa ho
146_0384 e ne e sa re
146_0385 e ka hlabeha qetello ya
146_0387 ba tshwasehe kutlwisisong e mopatisane
146_0389 hatisitsweng setlankaneng sa depositiseo ba
146_0391 ba rutwe le ho rupelwa
146_0392 khamphaneng ya marematlou holdings ba
146_0393 a se ke a ho
146_0395 early middle ages
146_0397 o ka itahlelang lemeneng la
146_0399 ne ba itjella bolokwe ba
146_0400 ku tlwisiso e kgabane ya
146_0401 demokerasing e kgonang ho ipeha
146_0403 eo o se o e
146_0405 lenaneo la ho pepa le
146_0407 ke ha ba nwabeleditse ba
146_0409 provenseng eo ha ho se
146_0411 moelelo sekaseka le ho hlalosa
146_0412 ha o ka wa mpha
146_0413 na le boikarabelo ba ho
146_0414 states presidential candidates
146_0417 o e fetolele ho lekgathe
146_0418 tshekatsheko ya hae e paka
146_0419 ba se ke ba di
146_0420 lofe a ka hlolehang ho
146_0421 paleng ee o ka re
146_0422 sehlahla ke phetho ke tu
146_0423 hard disk drives
146_0425 ke ho kgahlisa baditjhaba ka
146_0427 ho se ho le tjena
146_0428 union member states
146_0429 java virtual machine
146_0430 ho underwriter ho ya ka
146_0431 ho thuswa ho netefatsa ntlafatso
146_0432 ba le utswe ba le
146_0433 eo o ka e tsamaisang
146_0434 indian national congress
146_0435 re le ha e le
146_0436 seo ke lekang ho se
146_0440 lebellwa ka ha e ne
146_0442 di ka o hapisa moqhaka
146_0443 tjhefu dijong le ha ho
146_0444 ba a ruteha le ka
146_0445 ikemisetse ho reupella le ho
146_0447 baromuwa ba ncop ba ka
146_0449 a mamel wa le ho
146_0450 grammy award winners
146_0451 o tle o se ka
146_0454 tlhokomeloi ya boalosi lehaeng la
146_0456 a itjhebetse mejo lemmethe wa
146_0458 loreal age perfect ke ditlolo
146_0459 bukeng ya ac jordan e
146_0460 ya thitelo ha mantshele motaung
146_0461 eo ka ho tshelwa ka
146_0462 la peete le ne le
146_0464 efeng ke ha baqolotsi ba
146_0468 married couples living
146_0470 ha ke le mokaana ke
146_0471 eo a se a kgutsitse
146_0472 butswe le ho butswa ke
146_0473 hlokomedisa ka bobe le bokgopo
146_0474 ne e fupere le ho
146_0475 ho re ho be le
146_0476 internal combustion engines
146_0477 menahano ya ka ya farasa
146_0478 national science foundation
146_0479 ebesela a ntjhafale e be
146_0480 sa ka e le semenomasweu
146_0481 ba le nate boltong e
146_0482 ka ho re o se
146_0483 kotlo ya ho kgotha le
146_0484 o tjhele ya phediso ya
146_0485 ya ho theolelwa le ho
146_0486 human rights activists
146_0488 barata ho nkeletsa ho phahamisetsa
146_0490 se ke wa tshaba ho
146_0491 moscow state university
146_0494 e sebedisehang e amahngwa le
146_0496 ho thujwa ho ba dikotwana
146_0498 soma ho mo qosa le
146_0500 a le holena la meutlwa
146_0501 ba leloko le metswalle ho
146_0502 ya mmampholane ya boiphetetso e
146_0503 tsabosetjhaba le ysa profense di
146_0504 e kalo ka r e
146_0505 valence bond theory
146_0506 le lequlwana la dinokwane le
146_0507 poello ha o beeleditse ho
146_0508 lebososelo le monaleo a tummeng
146_0509 ho ya ka dipolotiki basebedisani
146_0510 di e ja e le
146_0513 hlanya ho ne ho batleha
146_0514 na lepato le ka tswelang
146_0515 ho ba bahlopholli ba peo
146_0516 qhekella mofumahadi wa morena ramoroko
146_0517 e se be eo mmate
146_0519 le ha e le se
146_0520 ke bosotho nthwese kola sa
146_0521 le o sa kgeseng e
146_0522 e ne e ka ba
146_0523 e se kgeme le pehelo
146_0524 baobab baobab or adonsonia digitata
146_0526 se e le lesupi ho
146_0527 se bo ikakgetse ka setotswana
146_0529 sa ratweng ha ke re
146_0530 castel sant angelo
146_0531 a robedi kamora polotso ho
146_0533 orutamekgwae loketsengbatho babaholo o be
146_0534 la tiiso ka e meile
146_0535 di tshwauwe pampiring eo di
146_0536 ho na le se ka
146_0537 itebohela ha ke sa ka
146_0538 ba matriki di se di
146_0539 di kititsa le ha a
146_0540 ho ba moruti wa kereke
146_0541 qolla leakaretsi o be o
146_0542 ka ba ke hanana le
146_0543 ya ho ba le dikimi
146_0545 se qaqolohane ha se a
146_0546 ye a re o ka
146_0547 la ka ho ipapisitswe le
146_0549 e ka ba ao e
146_0550 medieval islamic world
146_0551 ho nahana le ho amohela
146_0552 ke ke a lema a
146_0553 se kgathale a be le
146_0555 setefikeiti sa boingodiso se ntshwa
146_0556 yane ya mahadi eo e
146_0557 e tswang ho nac ho
146_0558 ba ka e ka sebedisetswa
146_0560 sa kgotsofalang la marenana le
146_0562 le momahano le ho bona
146_0563 a shwa ke a ikepela
146_0564 ho nyahama ho ka bakwang
146_0565 le hlahe ho o fa
146_0566 ya ba kgaoletsa ya tsholoha
146_0569 ya phano e behuweng e
146_0573 e ka makotikoting le e
146_0574 chinese new year
146_0576 tikolo ya karolomoruo eo e
146_0580 ba hatellwe ka ho tingwa
146_0581 ya mosuwehlooho ho ya utlwahantle
146_0585 dipale le ha e le
146_0587 mo rokang a be a
146_0588 e se ka diketso ke
146_0590 monnae a mo atametsa ho
146_0592 e nngweentlee mo susumeleditse ho
146_0594 le bojuta le bokreste re
146_0595 le mekgatlong ya baserbetsi ho
146_0596 bapiswe le tshupamolato eo ho
146_0601 ho o tl waetsa phaphusi
146_0603 merafo ya kgauta e na
146_0604 eurovision song contest
146_0605 mohlanka wa bongaka wa setereke
146_0606 methwang ka dimetara e balwang
146_0607 ke masiasiane mahlokalebelo ya senang
146_0609 le nkgono mmathulare hammoho le
146_0610 hlokole dumelle le be le
146_0611 ho na le leqai le
146_0613 ketsamelao a diprofense ho bea
146_0614 tumello e ngotsweng fatshe ya
147_0001 reactive oxygen species
147_0002 ba ka ke iteletse ho
147_0003 tsamayelana lekotsi e kieng ya
147_0004 bonyaneng ba ka ha ke
147_0006 great lakes region
147_0007 ba hodisitswe ho se na
147_0009 tlalellana di a pakellana e
147_0010 maidiidi a mo lesa a
147_0012 le ntshehetse ha e le
147_0016 le tjhabile le monatjana ho
147_0018 sa dumele ho ka fefolwa
147_0020 ba se ba e kolla
147_0021 ntlhahetseng ha se tabatabelo ya
147_0022 iowa state university
147_0026 ha e le ho teela
147_0031 le ho re ho tshabanwe
147_0032 wa mahindu ho hatellwa difeleng
147_0036 be le e ngatanyana ba
147_0038 eteleditsweng pelepele di rerile ho
147_0039 e na le histori e
147_0041 di apostille certificate ke ditifikeiti
147_0042 le ha barata ho nkeletsa
147_0043 le manyofonyofo a swabisang tsama
147_0046 ba ka di ke ke
147_0047 mohokare e ne e le
147_0049 ha a ka a mo
147_0050 free trade association
147_0051 ha ke re fara ho
147_0052 ne a sa dumellane le
147_0053 chinese communist party
147_0055 rometsweng ka fekse di ke
147_0057 o se abile a le
147_0058 diphofu ha ho sa fihlelwa
147_0059 v v v ha a
147_0060 ke ya ho batlisisa ka
147_0061 di close corporation di partnership
147_0062 ne ke re ho ya
147_0064 kojwana di mahetleng le ba
147_0065 ho baeletsi ba botegniki ho
147_0066 e fifetse ke mobunyana le
147_0067 ba mo memetse meketengle dikonsareteng
147_0068 a fihlang bokgutlong ngongoreho ya
147_0069 di ja le ho di
147_0070 eo ya lehokedi sehella lehokedi
147_0071 ka le ne le hanella
147_0072 motsemoholo ka dikhanselara le ho
147_0073 ha ke ya ke shebile
147_0074 pope pius
147_0075 leqwetha a sa re o
147_0076 o na le khopi ya
147_0077 le parole batlatsi ba badulasetulo
147_0079 rateng le ha ke re
147_0080 kgolohadi le e bolokilweng ya
147_0082 e babatsehang e nepahetseng le
147_0083 national historic landmark
147_0086 basebelletswa batshehetsi jjwalojwalo mekgatlong eo
147_0087 kepa a rola katiba a
147_0088 be re be re aha
147_0091 ka hlakola le ka phato
147_0093 venice film festival
147_0094 memorantamo o ba tsebisangka diphetohotse
147_0095 ha ke mmotsa a re
147_0096 a nwe ho faswa e
147_0097 o ntshwarele ha e le
147_0099 ba fosetsaneng ha o sa
147_0100 bonngwe ka bonngwe haele mafiritshwana
147_0101 o be o di ngole
147_0102 ya kgoholeho ya monu ii
147_0103 o mobe o sa rateheng
147_0104 ho ka hlahlojwang le ho
147_0105 ho phahama le ho theoha
147_0108 wa porovense wa kgauteng ka
147_0109 ke carlos alberto parreira le
147_0110 ha e le bo le
147_0111 e le engwe ho na
147_0112 o le malala a laotswe
147_0113 ha ho sa na moketjana
147_0114 le ho ruruha ha manonyeletso
147_0115 o be o le sehelle
147_0116 ohio state university
147_0117 e rabella ka sabole ho
147_0118 bo menomasweu ba o bolayang
147_0119 mananyetsa o ne a ikgakantse
147_0120 ka kotloloho le ho kgutliswa
147_0121 ho ba ya ikanang a
147_0122 lekile ka makgetlokgetlo ho o
147_0123 riemann zeta function
147_0124 matlong a rdp ho a
147_0125 wa ho fepa le ho
147_0126 molangwana molangwana oo ke wa
147_0127 o mula nthwane ya se
147_0128 ya ba e se e
147_0129 sa baikopedi ba sa atlehang
147_0130 dikharikhulamo di na le ho
147_0131 ba ho hlabolla botsebi ba
147_0132 ba a kwetse nqi ba
147_0133 metsing he motswalle ha ke
147_0134 ka ba le tshusumetso e
147_0135 o loileng o itoile ka
147_0137 bosofe bo ka ba le
147_0138 a selasela theepe ya dimo
147_0139 eo o e rekang ka
147_0140 se mo tlatlapile se tseka
147_0141 mo kgothatsang le ho mo
147_0142 re ke re e tshohle
147_0143 e se e nkeme maqothe
147_0144 ha o letsetsa healthline o
147_0145 kganyapa o ne a le
147_0146 pepesehile le ho ba tlokotsing
147_0147 actor golden globe
147_0148 largest trading partner
147_0149 ke potele e kgwathwang ka
147_0150 be a sa phethise ditshepiso
147_0151 fura la ngwna ke ho
147_0152 average family size
147_0153 hlahlobisisa bokantle ba makasine o
147_0154 ka ha di amana le
147_0155 e ba ya borathuto ba
147_0156 tereneng eo ke e palamang
147_0157 o ne a shebahala a
147_0158 e ke ke ya ipitsa
147_0159 ha di kenyeletse setroi ditlhoka
147_0160 sebolelo o mo kena hanong
147_0161 le ba bararo ba ka
147_0162 fraenkel set theory
147_0163 pokothong ya ka a ba
147_0164 le sele le bohweng ba
147_0165 itshwenye le ho itshwenya ka
147_0166 e le hamethepa o e
147_0167 phethahaditswe o bolokolohing ba ho
147_0168 eo mokgwenyana ba ne ba
147_0169 ha e ke ke ya
147_0170 football league
147_0171 kgwehlang e ne e le
147_0172 mo tadima ka pelotlhomohi ka
147_0173 fetolelwe ke mofetoledi ya nkileng
147_0174 ha ho se ho tsepamisitswe
147_0175 ho itsibola ho ba le
147_0177 statistik provisionally valued
147_0178 e hatsetswang e etsuwang leqhwa
147_0179 a re leotwana lee ke
147_0180 ke ke a arolelanwa le
147_0181 e sa le ka madungwadungwa
147_0182 ha a ne a fihla
147_0183 mosiuwa ha a ka a
147_0184 ka ha e lebisitswe diketsong
147_0185 ba jakile ho mokgatjhane ba
147_0186 edgar allan poe
147_0187 mo lebelletseng ha o mmatle
147_0188 tlaase le ha mofani a
147_0189 be a se a betsehile
147_0190 a supasupa e ka o
147_0191 eo o mo sentseng o
147_0192 tshetso ya se tegeniki ho
147_0193 milky way galaxy
147_0194 ho se ke ha ba
147_0195 sefateng e se e mo
147_0196 ke ke ha ba le
147_0197 buseletsana kahoo o ne a
147_0198 le di etetseng ha le
147_0199 v ho rafoha le ho
147_0201 oo o o nwang o
147_0202 e ne e ba fokoletsa
147_0203 binary search trees
147_0204 ha ba di phetle ho
147_0205 kgokahano ya dikahare le mehopolo
147_0206 tela maseru ke ho tela
147_0207 mehau ke re o ntsubise
147_0208 ka sefubeng ruri e ne
147_0209 ka ha di fuperwe ke
147_0210 a se a a kgotshe
147_0211 sa utlweng ke a ipotsa
147_0212 be a se a kgeloha
147_0213 ka ho se balehe le
147_0214 kwetswe le mafelong a beke
147_0216 e be se atametseng ho
147_0217 ya tlhodisano le ya boinotshi
147_0218 tsamaisanang le metantsho e sa
147_0219 mokudi ya kulelang lefu ka
147_0222 a ka hodimodimo ao ke
147_0223 ho o isa ho makgistrata
147_0224 holofetse ba qhwadile hampempe e
147_0225 ba ba ho se boloke
147_0226 ya ho fana ka ditshebeletso
147_0228 tau setswetse ke o jwetse
147_0229 ka ba ke o rohaka
147_0230 ya o tebetseng a re
147_0231 ahlotswe a fumanwe a le
147_0232 re potlololo ha a bolellwa
147_0233 se ke wa kgutlisa bukana
147_0234 e ne e le lefe
147_0235 le mafenethe o ne a
147_0236 o ne a sa reriswa
147_0237 fact date april
147_0238 makatsa ka ha ba ne
147_0239 le dibopeho tsa dipolelo ka
147_0240 la ho bolaya mosebetsimmoho le
147_0241 ya ho re o se
147_0242 early twentieth century
147_0243 mokgatjhane ba ne ba se
147_0244 ho tseba haholwanyane e ya
147_0245 le ba hlwaileng ho ya
147_0246 mohwehadi a bobotheha ke ho
147_0247 kgorong eo ho kenwang ho
147_0249 general public license
147_0250 a hlahela meduduetsane bokgeleke ba
147_0252 major league soccer
147_0254 tswellisa batsetedi le ho hlabolla
147_0255 le maqwetha ba ne ba
147_0256 ha ba welajwalo a se
147_0257 a ketsamelao a diprofense le
147_0258 ka foreisetata le lesotho e
147_0259 ba be ba e kgutlise
147_0260 e ne e le diya
147_0262 re tlole ka sekotjaneng se
147_0263 le bo ka kgonwang ho
147_0266 spanish civil war
147_0267 ba palamisa le ho theola
147_0268 le madi ya ka kgotsofallang
147_0269 e ka hlodisana le dikhampani
147_0270 thuthuhang le e behilweng ka
147_0271 le e raraheneng ka ho
147_0272 ho dumella mmadi ho itemohela
147_0276 eo o e lefang ho
147_0277 ya ka tshebedisa no ya
147_0278 le ho loela ha demokerasi
147_0279 b sc b sc honours
147_0280 ha se pheko ke mosotli
147_0281 a kgohletse a le dibebe
147_0282 ho bulela bongatane le ramafothole
147_0284 leqeme ba ke ba ba
147_0285 ho nyanyatsa dijalo ka sefofane
147_0288 ke sa tsilatsile le ho
147_0289 e a nyahamisa e a
147_0290 na le voutu e le
147_0291 ha ba sa new ba
147_0292 idibane se ka o tiisetsang
147_0293 kgaello e totobe tseng sebopehong
147_0294 meso ya ditshehlo le ditsikitlano
147_0295 bo ahe tulong e le
147_0296 e nehelang ka botswadi ba
147_0298 fact date february
147_0299 seqhenqha sa moshemane a le
147_0300 grammy lifetime achievement
147_0301 lekanang mahlakoreng a mabedi a
147_0302 ya ho rutela ha a
147_0303 educational institutions established
147_0304 foreign direct investment
147_0305 o fellwe ke bosotho nthwese
147_0309 ha di sa le yo
147_0310 ya tshbetso ya ho hulwa
147_0311 eommae e be e tukang
147_0312 re ka qolla ka ho
147_0314 masea a siiwa le bonkgono
147_0315 dumellana mo mahano e hlahella
147_0317 hlokomela le ho kgetha dintho
147_0318 human rights organizations
147_0319 tb di ba le boitwanelo
147_0320 mmalerato le ho potlaka ha
147_0321 o re tsho o nyalellana
147_0322 o atameditse haufi le tharollo
147_0323 ke sector education training authority
147_0324 e ie ya tshiyamo ie
147_0325 ka fekese ha ho se
147_0326 ya batshwaredi board of trustees
147_0327 ho na le bolokollohi ba
147_0328 ho ne ho se na
147_0329 se le fiela ka dintshi
147_0331 e ntle ha holo ya
147_0332 ho na le tshisinyo ya
147_0334 le khoutu ya setheo khoutu
147_0335 botleba mookodi ha lefafatsanele qetaho
147_0336 ho boitokisetso ho ya ho
147_0337 quantum field theory
147_0338 fetuwe ke lenaneo o fetuwe
147_0339 masara le ditimiti di ne
147_0340 le dikela o ne a
147_0341 temg tpp amemg bpmmete ba
147_0343 ntano mo tjhentjhela dikobo le
147_0344 o hlomolang hakaale eo ho
147_0345 tenese krikete kolofo ditebele ditantshe
147_0346 be e le ho mo
147_0347 tswele ka ntlo ba yo
147_0349 e fuputswa ho na ho
147_0350 na o ka ya khemising
147_0351 le bohole e be ho
147_0352 ancient near east
147_0353 ba hlollwa ba re hoetsahetse
147_0354 american psychological association
147_0355 di e rorisa a ke
147_0356 ya dithaere e ka se
147_0357 khalkhuleita e behilwe e le
147_0358 ba ka ha re majalefa
147_0359 botlolo ya boranti le ho
147_0360 ke ke a buellwa ke
147_0361 e le sekowa sa kelello
147_0362 a ke o hlalose hakgutshwanyane
147_0363 mo re he a ba
147_0364 e le la leteterre ho
147_0365 mo kgothatsa ka ho mo
147_0366 tsoke letjhoba a akgotse lengetse
147_0367 ba tshwanelehang ho ba khanseleng
147_0368 ne a ye a bitswe
147_0370 a ha ho hlokomeleha ho
147_0372 ya kheshe eo ho fanwang
147_0373 popeho ya phepelo ya dijo
147_0374 eo o ka fetisetswang ho
147_0375 ho e hlatswa le ho
147_0376 ha e le mariha ho
147_0377 ba motlolamolao ho buseletsa mo
147_0378 ho lekanya boleng ba ho
147_0387 e le mmolai ho ka
147_0388 se ka bokellwa le ho
147_0389 ho ke ke ha tellwa
147_0390 ka ho phethahala le ka
147_0392 national film registry
147_0393 tlameho ya boramosebetsi ya ho
147_0394 barui ka ha e ba
147_0395 ma israel le ma palestina
147_0396 islamic conference oic
147_0397 a kgomathisitsweng ho lokollweng ha
147_0399 leboha kgutlana la ka ramasedi
147_0400 o ne a sa ikutlwe
147_0401 johns hopkins university
147_0402 baphetwa baa ba ne ba
147_0403 ba ne ba ke ke
147_0404 taolo ya mehlodi ya tlhaho
147_0405 rock music groups
147_0406 e etelang masea a sa
147_0407 le letsho letebele o ne
147_0408 ho ya hoile a keketehisa
147_0409 o se ne a ye
147_0410 aids ke ba pepesehileng ho
147_0411 re ke leso ke leso
147_0412 hlephe o ne a itswetse
147_0413 ho le dintwa vmme e
147_0415 e tobisitsweng ho phofu ke
147_0416 ho tlwaetsa le ho rupela
147_0417 a ke o qoqe ka
147_0418 ho hlekelwa sebae ka ho
147_0419 bapile ba ntshana se inong
147_0420 re ne re o tshepile
147_0421 ke bra t tshepiso a
147_0422 academy award winners
147_0423 ka bui sana le mec
147_0424 a ne a hlile a
147_0425 ho ba eo ho sebetswang
147_0426 le fatere ba ka mmakalla
147_0427 le mosuwetsana ba ka lekanyang
147_0428 ke ha bohlokw a ho
147_0429 moshanyana ha di jewe paleng
147_0430 ne e le la ho
147_0431 ba ne ba sa nahane
147_0432 internet protocol suite
147_0433 e hlileng e o hwayahwayang
147_0434 golden globe winners
147_0435 monetary fund imf
147_0436 se netefatswa ke maele a
147_0437 di kgobokantswe ho ya ka
147_0438 ke re na ha e
147_0439 kentsweng lebitleng la ramoroko le
147_0440 uk singles chart
147_0441 king charles
147_0442 ho sebeletsa ho kopanngwa ha
147_0444 he ha re phahamiseng ke
147_0445 radiphaphatha a mo re qhau
147_0446 atlantic treaty organization
147_0447 open source software
147_0450 a hlomamisa dikomiti ho ya
147_0451 e tsepamisitsweng ke setsebi se
147_0452 e khutshwanyanehokarolo ya b o
147_0453 ke re ke ne ke
147_0454 eo e ka tlalehwa embasing
147_0455 ene e le ho sireletswa
147_0456 ba sebetsanang le bohlahlobi le
147_0457 ho thata ho dumela tsena
147_0458 ka ha re ne re
147_0459 current prime minister
147_0462 clean air act
147_0463 nne o dulele ho komakoma
147_0464 ho e na le leemenyana
147_0466 ho le ba mo mametseng
147_0467 e ke ke ya sebetswa
147_0468 united states marine
147_0469 so ye le hojana a
147_0470 a di fe tlelereke ya
147_0473 mashome a mararo ka mora
147_0474 o ho tshositse ka ho
147_0475 ba maralla a o dikileng
147_0476 ka be a mo lohetse
147_0477 se ke a hlekefetsa mmeleng
147_0478 emang honamoo ho kgaruma e
147_0479 king james bible
147_0480 ka thato ya tshwene terene
147_0481 e ne e le dilalome
147_0482 ipaka ho re ha e
147_0483 new york state
147_0484 services hokenyelletswa le ba beileng
147_0485 ka tlelika konopong ya ho
147_0486 sa lleng o shwela tharing
147_0487 e ne e le moadvokate
147_0488 ha a kgathale o phofaka
147_0490 ya ateraetisi ho na le
147_0491 ha le ne le le
147_0492 e lemonyollane o tshajwang lesakeng
147_0493 hadikelang ho di ja o
147_0495 dead sea scrolls
147_0496 ka ba nyane hakae e
147_0497 ho disa le ho e
147_0499 eo ba e fuparisitsweng ba
147_0500 ba lahlane mohanuwa a mo
147_0501 a ne a le unibesiting
147_0502 le bahokahanyi mohatong wa porofense
147_0503 e ne e le satertaha
147_0504 a di hadikela ho di
147_0506 ne a apara hempe e
147_0508 idp di idp di na
147_0509 e itshetlehileng thothokisong e hlahisitsweng
147_0510 nobel peace prize
147_0512 moma katibanyana ya kepa e
147_0513 ye e mmalehele e sa
147_0514 a betsetsa leboya o hlollwa
147_0515 se rutwang se be se
147_0516 ya dipolotiki le ikonomi ya
147_0517 moporesidente wa mehleng wa anc
147_0518 advocate le ha ho le
147_0519 ho na le sete ya
147_0520 o nyallane le se tlalehwang
147_0521 ba ba ne ba le
147_0522 o tlisitse ho tella kwano
147_0524 a kwaholla lesela le kwahetseng
147_0525 american free trade
147_0526 baheso ha re boeleng re
147_0527 o dule o fetola ka
147_0528 se a ne a thobise
147_0529 re le ha ho ka
147_0530 e fetileng le ba futsanehileng
147_0531 melala e tamolletswe sa kokolofitwe
147_0532 a ithapela a mo fa
147_0533 boela ba hasana ka ditsheho
147_0534 o lemao le ntlhapedi o
147_0535 cite book title
147_0536 tokoloho eo a e labalabelang
147_0537 ne e se e ie
147_0538 ka e amohetswe ho sasa
147_0541 e sebediswe selakgeng ha ke
147_0542 ya papiso le ya boqapi
147_0543 e fihletsweng ka mekolokotwane eo
147_0544 ka ngolwa ka ho hlaha
147_0545 ya boikamanyo e se e
147_0546 hommeng he leshodu ke le
147_0548 ne ba se ba se
147_0549 re kgenne e le ka
147_0550 ba ka ka hahaba ka
147_0552 ke ne ke sa bolokeha
147_0553 wa ditlhophiso le ha e
147_0556 ho thehwa ha makala a
147_0557 a masweu a pholiesetere a
147_0559 mabitsoao o be o a
147_0562 ho ka ba le ya
147_0563 a re o batlile a
147_0566 apere nkwe ha e le
147_0567 sa busetswang madulong eo ho
147_0569 pitikisana ba ba ba ya
147_0571 o phethaphetha phoso e le
147_0572 sir arthur conan
147_0573 a b c d ho
147_0574 rarolohe bo rarana le ho
147_0575 ya sapoto o na le
147_0578 ka nepahalo le ka ho
147_0579 ha le ne le ntshana
147_0580 ba ke ba itekole ba
147_0581 ba mphile ka letsohong ka
147_0582 ne a le unibesiting o
147_0584 ho tsohwaka matjekemme ho uwemotseng
147_0585 le phetohonyana e makamakatsang eo
147_0587 ka re kgohlano e thehilwe
147_0588 ofisng ya diphemiti e be
147_0589 ba ke ke ba dumelahore
147_0591 ba le tshenyo e bakwang
147_0592 e dumeletsweng e fapane le
147_0593 ha ke sa notlela o
147_0594 ke ke a mamella ho
147_0595 a ka ha ho na
147_0596 le dpsa e le ho
147_0599 le ho se inyatse ha
147_0600 di indasteri ka ho kgethehileng
147_0601 le ditlwaelo ho ya ka
147_0602 lehwatatanyana le saballetse ho ya
147_0603 ha a kobile mangwejana a
147_0604 ho itshwareletsa ka mahohodi ba
147_0605 matlotlosia ba seba o ne
147_0607 thibelang mafafatsane a ko bapatse
147_0608 se ka rerang ho di
147_0610 itholela a re tu phokojwe
147_0611 ho bora e sa bolelwang
147_0612 sa deidro di a kgolweha
147_0613 e ja setsi le ho
147_0614 cuban missile crisis
147_0616 di a o sulafalla ha
147_0617 ka ha di balletswe ke
147_0618 buuwe ka ho lemala o
147_0619 le ho hokahana ka tshebetso
147_0620 ao ho ka nehelanwang ka
147_0621 eo leyena o ne a
147_0622 ha di robaletse ke o
147_0623 sir isaac newton
147_0625 diterata ka dipeta radiphaphatha a
147_0626 mathisaka matshoho ka mokokotlong ho
147_0627 la ho ya le sephume
147_0628 a sa ye kerekeng o
147_0629 o ka re ho ya
147_0630 le lakesense ya kgaso ya
147_0632 he ke a o hlapanyetsa
147_0633 diphoofolong ha di yo kotulong
147_0634 nthusa ha ke le mathateng
147_0635 mamina a se a kopane
147_0637 ya e romelwang mathwasong a
147_0638 npi e na le kantoro
147_0639 homme ka lentswenyana lemakgerehlwanyana le
147_0641 a e tshepetswe ka nqe
147_0642 ho tu o balabala ka
147_0644 ho na le se sa
147_0645 sa rarollwe o na le
147_0646 ho rehotla ba lekopano ya
147_0647 tshehetswa ka mabaka a utlwahalang
147_0648 ne a na le sekola
147_0649 e na le ho itlohella
147_0650 ho hlophiswa ka ho latela
147_0651 o ne a hlile a
147_0652 tlhaka ya basotho p t
147_0653 e a etswa ho tadimilwe
147_0654 utlwileng ka ho nyalwa ha
147_0656 naheng ya matjhaba e ka
147_0657 o ne a enale banababararo
147_0658 o se nw e seno
147_0660 london stock exchange
147_0661 di ba qositse bokgothokgotho ba
147_0662 pobodi e se e sa
147_0663 o re o na le
147_0664 ka hobona kgolong ya ka
147_0665 ha ho sa be le
147_0666 o sa ntome le ho
147_0667 ha o se o kene
147_0668 o ne a sa sisinyehe
147_0669 qamaka le ho ikgodisa ka
147_0672 ba tshwerwe ke mala ke
147_0673 a itlaleha lehlaba le mo
147_0674 tjamelaneng le indasteri ya merafo
147_0676 v a ke ke a
147_0677 kwallalemati la tekisi ha e
147_0678 e qetwa ke motjheso ka
147_0679 na o ka re ho
147_0680 ka mokotla a o phuntsemasobana
147_0681 wa re be re tsohe
147_0682 ke na le tiisetso ya
147_0684 horeo yentle le hamohlomong o
147_0685 ha re a phekgohe a
147_0687 katamelo e tobisitsweng ho phofu
147_0688 united states navy
147_0689 ho na le boleng ba
147_0690 ne a sa sitwe ho
147_0691 ke fositse mokubetso ha ke
147_0693 khopi e tiiseditsweng ya tokomane
147_0695 e phutholohile ha e ya
147_0696 o mo kena hanong ha
147_0697 e sa komakomeng le ha
147_0699 se ke ha ba le
147_0700 moleng wa wepsaete o ka
147_0701 a ka ba le badudi
147_0702 mokgosi ba ba lelekise ba
147_0703 o e lebiswa ho wa
147_0704 ya thuso ya tjhelete mokgatlong
147_0705 ha e a kgotsofatswa ke
147_0707 kgahlang ke ya banhlankana le
147_0709 clarify date november
147_0711 ne a le popa o
147_0712 le thupelo ya tlatsetso ya
147_0713 o ba kentseng projekeng ya
147_0714 ya ho inwella ho ituletswemoriting
147_0715 e ne e le lekonstabole
147_0716 ne a ikemiseditse ho mo
147_0717 aterese ya moaho ya bodulo
147_0718 ho nnile ha ba le
147_0719 le esong ho ka le
147_0721 ya dipetlele le ditliliniki le
147_0722 ke inehetse a ne a
147_0723 democratic labour party
147_0725 o sa kgoneng ho bo
147_0726 se na tlamo ya ho
147_0727 sejura le le se latelang
147_0728 boiteko bo fokolang ba ho
147_0730 le ya ikanang ya sa
147_0731 ne e le sehla sa
147_0732 phehuwang le se o ferose
147_0733 ronewa o re ditlhware di
147_0734 botjha le ho hlaola diphoso
147_0735 eo a ya lefung o
147_0736 ho kgefutsohare le ho le
147_0737 o tl waetsa phaphusi ya
147_0738 e ne e le tsotsi
147_0740 hotsholo tjhoba le se le
147_0741 seka sekwa le ho phutho
147_0742 ho ithata ho ithlokomela le
147_0743 ka ho re ke thapedi
147_0744 human rights watch
147_0746 ke o rohaka ha ke
147_0747 ho be le selelekela mmele
147_0748 ha ba ne ba ye
147_0749 tshohile ba thothomela ba sa
147_0750 le web administrator ka ho
147_0751 ha o ne o fufulelwa
147_0752 ne e le mokgwenyana wa
147_0753 e ntsieditse e a nkimela
147_0754 le ha mohlomongo ne o
147_0755 ditshokodiso banang le dikgathatso ho
147_0756 di ne di se di
147_0757 mekgele e se e wetse
147_0758 south east asia
147_0760 ba be ba ba tlontlolle
147_0761 le mmapa dikerafo le ditafole
147_0763 ho lokisa wili ya ka
147_0766 o ne a halefa ha
147_0767 hweletsa sabese se ikgarile ka
147_0769 seqhwalasena se pudufetseng se siileng
147_0772 e le ho lahla mehlala
147_0773 ho ya ka botekgeniki le
147_0774 ho kapea ka baesekele ho
147_0775 a amanngwang le ho namela
147_0776 ba a inehela ha ho
147_0777 ho tshwarana ka maqiti ka
147_0778 di na le babuelli ba
147_0779 american roman catholics
147_0781 united states postal
147_0782 e ba le tshita e
147_0783 maleme e ne e le
147_0784 botebong ba thabahadi a epe
147_0785 ao o a sebesisitseng a
147_0786 mmetwane ho nyenyefatswa ho tetekwa
147_0787 ba dikolobe tje o a
147_0788 di be le kgutsufatso e
147_0789 sa ntshwaneleng le ho ntshwanela
147_0790 o sa qeaqee le ho
147_0791 ho ya ka pfma ke
147_0792 o ne a sa buse
147_0793 ba mehlengena ha ba sa
147_0794 ke a ba a thoholetswa
147_0798 power parity comparisons
147_0799 a bapisehe ha a na
147_0800 ka ba le tiehiso ka
147_0801 ntate na o a elellwa
147_0802 o mo kgathatsa nyene le
147_0803 ya bohlabaphio ya rivonia di
147_0804 mo halefetse ha e le
147_0805 ho mo kgothatsa ha a
147_0806 o a phuthuloha le sefahlehong
147_0809 a ho se tshwanelwe ke
147_0810 phahamele mapoqo e sa le
147_0811 ne ho se ya ithekang
147_0812 sejalo sa lekgala le babang
147_0813 o ho tenang a ho
147_0815 ha a ne a latola
147_0816 wa boraro le ha ho
147_0824 o ne a apere mose
147_0825 close corporation di partnership ditlelapo
147_0826 ke e lebang jwaleng ho
147_0827 be e le ho fahla
147_0831 la rehwa lepoqo eo ha
147_0832 d i ha se a
147_0833 le f ka ho hlohlomisa
147_0835 sa moraorao e ka ba
147_0836 se nkwang e le mputso
147_0837 se batlahala se fihlelletswe ho
147_0838 o sa ka waba le
147_0840 ho se ikamahanye le dipehelano
147_0841 discrete fourier transform
147_0842 ubella ditsuonyana a sa mekamekane
147_0843 ne ho timetswa ka ho
147_0844 potlako ka ho ya ka
147_0845 ho mmuelli ke ha a
147_0846 ne e le mofufutso o
147_0848 ba ne ba tswaseyalemoyeng sa
147_0849 lekola botjha le ho hlaola
147_0850 united nations general
147_0852 bui sana le mec ya
147_0853 ne ba qenehela bara ba
147_0854 early bronze age
147_0855 ho ntheka ka leleme le
147_0856 monday night football
147_0857 wa genevieve wa ho ba
147_0858 ho hoholo ha ho rentwa
147_0859 a ka kula a holofala
147_0860 nakonyana e teletsana ke ha
147_0861 united states declaration
147_0862 le yogathe e ka nwewa
147_0863 e le molwantshi terameng ee
147_0864 quotas ho be le dikotlo
147_0865 o hloka ho thuswa ha
147_0866 e le ho fenethalesea ha
147_0867 letsatsing leo e entsweng ka
147_0870 ho petsoha le ho epeha
147_0871 e be o a iphetela
147_0872 ya sehlotshwana e tadimana le
147_0873 bontshwa ka ho kengwa ka
147_0874 ba ke ba hahlwe ke
147_0875 ha a re o a
147_0877 entela feberu e tshehla ha
147_0879 ya sephiring ya ka le
147_0880 bo boletsweng leqepheng la ditaelo
147_0881 ho hodisa le ho totobatsa
147_0882 malapa a tjamelane le diphepetso
147_0884 ha e ya ka ya
147_0885 ka ho ya ka tshitshinyo
147_0886 e le nonyana ya ntlwanatshwana
147_0887 e lokelwa ho saenwa ke
147_0888 phomolo le ka tjhentjhana le
147_0889 ha ho so etsuwe o
147_0890 sa ho ngodisa khansele ya
147_0891 cardiovascular disease deaths
147_0892 be e le tharollo ya
147_0893 ho tla fanwa ka tsona
147_0894 le ho itebala ho re
147_0895 khanselara ya woto e ka
147_0896 e nyolotswe ka diphesente tseleshome
147_0897 ka bofokodi e ba le
147_0898 e ne e le mohobelo
147_0899 international red cross
147_0900 ka thota ha ba tlolela
147_0901 o ne a mmalla ka
147_0903 se nehuweng ho sa tsotellwe
147_0904 ke raditjhelete ya hafang ka
147_0905 a tlwaelehileng a dipuisano ka
147_0906 a mo tlweba ho ya
147_0911 independent media diversity trust ha
147_0913 ntjha le diphetolo ngodisong e
147_0915 ho ya dikopanong le disimphosiamong
147_0917 science fiction fandom
147_0918 lossless data compression
147_0919 e etsetswang bafumanehi le dihlopha
147_0920 ba srsa ho ya ka
147_0921 be o itheola seriti ha
147_0922 ka mahahapa tlatlapo ya ditsha
147_0924 le ho sireletsa lehlakore la
147_0925 ikamahanya le ba reretsweng ditaba
147_0926 founung botoloki ba founu bo
147_0929 ne a hloriswa kehlooho e
148_0001 re ba memmeng ka ho
148_0002 ho bolokwa le ho hlokomelwa
148_0006 sa dikulo difensetereng le monyako
148_0010 national security council
148_0012 a tsamaya o ne a
148_0013 dikgwerekgwere le monyediso ya mantle
148_0019 re be ngatanngwe ke pheto
148_0026 dipalesa mabitleng e ne e
148_0027 dikgomo le manamane ha bashanyana
148_0038 se phethahetseng setjhabeng le dibakeng
148_0039 developments pty limited le khayalethu
148_0040 ba ne ba le thekong
148_0043 o se kgitla le ho
148_0046 mo hatelletseng e ba mohlodi
148_0049 ho bokella le ho kopanya
148_0050 di buwang ka boikobo bo
148_0059 ho ba pepenene le ho
148_0062 le a phunngwamme moloio a
148_0064 thenthetswa le a nyonya le
148_0065 ba mapolasing balemi rui le
148_0066 boyona e ke ke ya
148_0069 eo e ke ke ya
148_0071 neho sa kahaeba le lerataka
148_0074 ba hema e re ha
148_0079 malomao ya o hodisitseng ho
148_0081 ho na le dingongoreho ka
148_0082 e le tlaka le a
148_0083 na ha o ka kgethelwa
148_0085 santaco re ke ke ra
148_0087 e sa hlokomelweng ka ho
148_0089 ne e le makejakejane a
148_0090 a le opela mahofi lekgutlana
148_0091 ka botjhabela ho ho ne
148_0094 dube thankga a be a
148_0096 ka matlotlo ao re a
148_0099 o re tlotlolotse re ne
148_0100 dikgomo ha di na motlohapele
148_0101 a se a bina sefela
148_0104 underwriter ho ya ka pholisi
148_0105 le ha hothwe ke lenqosa
148_0109 se saenetswe ke baamehi ba
148_0111 ho se hlomphehe ha ho
148_0112 united nations peacekeeping
148_0115 ke ke ya rarolla mathata
148_0116 steyn delport a fa mmueli
148_0117 le ho senolwa ha sephiri
148_0119 ha ba hlajiwe ke dihloong
148_0121 wa nomora ditlhokomediso le ditemoso
148_0123 ha a ka kgaotsa ho
148_0124 ka e se e le
148_0126 ka ha ba ne ba
148_0127 ke ne ke le bothateng
148_0128 martin van buren
148_0130 qoqwa ho a tshehwa ho
148_0132 t o rekile senomaphodi ledikuku
148_0133 melongwana e tshasitsweng kaletshwana le
148_0135 ho na le mekgwatsamaiso e
148_0137 o bohlile ka letheka maru
148_0140 ha re a phahame a
148_0141 ba re ba tlosa letshweya
148_0142 ithutla a ba a re
148_0143 o be o sisinye ditlhahiso
148_0144 ya a le e le
148_0146 great leap forward
148_0151 e kengwe setempe e be
148_0154 hothwe ke lenqosa le o
148_0155 ya o rekisetsang pholisi pholisi
148_0158 e ne e le le
148_0159 e ya e honyela o
148_0160 se ho phahlwa ho phothasela
148_0161 re ha ke mametse pina
148_0162 modulasetulo le motlatsi wa modulasetulo
148_0165 magauta e se e le
148_0167 ba hlahlobilweng e le ba
148_0170 le seroto se sa ribollweng
148_0171 ke re ke moihlwe ho
148_0172 best supporting actress
148_0173 wa tlhware ha di lome
148_0175 id le ya tshupiso ya
148_0176 karolwana e ntshitsweng koranteng jj
148_0179 african union member
148_0180 republican national convention
148_0183 a behela ba mmokanetseng a
148_0184 ho teba le ho tsepama
148_0186 phemiti ya ho romela hlapi
148_0187 ke ke a kgona ho
148_0188 joyene e fedileng ha a
148_0189 kaha ho kgaoha ha botho
148_0191 dutch east india
148_0192 isitsweng ho bafetoledi ba poraefete
148_0194 ho le leratanyana le thibang
148_0195 waseithati ya tshepileng ho itshwarela
148_0196 o nwele mahe ha a
148_0197 a tiisa ke a hlapanya
148_0198 lomahantse meno ha ke re
148_0201 ruburiki eo o e fuweng
148_0202 moputswa sa masumu wa dithako
148_0205 ho saena maqephe ohle a
148_0206 ke ramahlale ke ne ke
148_0207 pope gregory
148_0209 ke a ba a e
148_0212 united nations security
148_0213 eo o ne a kgabelletswe
148_0215 a tlohe tekenikonong ya witwatersrand
148_0217 ke sentebaleng ha a ne
148_0218 ho buella setlokotsebe see sa
148_0219 e ne e le moqebelo
148_0220 random variable
148_0221 a mesebetsi e ngolwang potefoliyo
148_0224 a fumanang mohlahlabuwa a arabile
148_0226 ha a ananelwe e le
148_0227 ha ke re ke ka
148_0228 ha e se a bontshitsweng
148_0229 a ya lengotswaneng lehaufi a
148_0232 diselefounu di nolofaletsa ba di
148_0233 ke toko eo a ka
148_0234 barekisi ba dikoranta ke ha
148_0235 religious organizations established
148_0236 se e le yabeng ba
148_0237 video game console
148_0239 ba banyenyane a re psa
148_0242 di loketse bomang ba dilemo
148_0243 mo fa matl a fe
148_0244 mooki tliliniking e ka marantha
148_0247 e o phehise hlama ka
148_0248 academy award nomination
148_0249 e methwang ka dimetara e
148_0252 di poma diterata ka dipeta
148_0253 junior high school
148_0254 ya hlokangmasapo ke ne ke
148_0257 hobositsweng ka kgoboso eo ke
148_0259 ya ho itshebetsa le ho
148_0260 re se re tsebiswa ka
148_0263 ao a ho tshoswa ka
148_0264 ho ka ikopangwa le iucn
148_0265 mokoena akhaonto ya polokelo ya
148_0266 f a ka laelwa ho
148_0267 mohlakeng e ne e le
148_0269 mopresidente mandela o ne a
148_0270 humid continental climate
148_0272 pope paul
148_0274 silika e be ho ba
148_0277 le ho se be le
148_0280 ho na le mananeo a
148_0282 se thwasang se ke ke
148_0283 a akgetse setipana sesesweu sa
148_0284 ya boqapi e a nehelwa
149_0001 prime minister tony
149_0002 ka mmadiepetsana watshomong ha a
149_0003 african unity oau
149_0005 o sa ye secunda o
149_0006 ba ha a na diprotheine
149_0007 dicereale reisi ditapole setampa phoofo
149_0008 mo immeng ke ngwanamadi a
149_0009 ba kgohlanong lemolao ba tobaneng
149_0011 eo a mo ratileng dilemolemo
149_0012 dac doj pansalb saqa le
149_0014 o le makaqabetsing ha ho
149_0015 re di lwanetseng ka ho
149_0016 lebelletse moreki le mofepedi ya
149_0023 ya silikha le silikhosis ke
149_0027 a le natala tlhware e
149_0030 le kananelo ya leksikhokrafi le
149_0031 ngwahashome ngwahakgolo bapabi le ho
149_0032 ke ke a phela ka
149_0033 a inyalanyang le dipallo le
149_0034 jewish theological seminary
149_0036 ka maafrikaborwa re na le
149_0040 ruri e ne e le
149_0041 lekgotleng le buletsweng bohle la
149_0042 ba ditekesi ha ba kenye
149_0044 ho iketsetsa kuno le diprojeke
149_0047 thokonyana ho maseru wa qwading
149_0048 kgosto nkabe ke re llang
149_0050 ya hlabehang a hlabehe eitse
149_0052 ka ho se je hnatle
149_0054 se na mollo ke a
149_0055 mohobelo a b kgoro ke
149_0056 ke ba tshebeletso ya databeise
149_0057 a ho ba bothateng bo
149_0058 ha a itlhompholle ka ho
149_0059 ya ntsotellang e le ka
149_0060 sa roleleyathunya o ne o
149_0061 ke letlaka haufinyane ho fetafeta
149_0062 e ne e kenyelleditswe ho
149_0063 sa rutehangbafola difemeng ba rutehilengba
149_0065 carl friedrich gauss
149_0067 melbourne football club
149_0068 botoloking ho leksikhokrafi le mareong
149_0072 ba ne ba mokopanetse ka
149_0073 o motsumi wa meya ya
149_0075 shwalane e se e tshwere
149_0077 ho ke ho kgutlwa re
149_0078 motjodi o tono se sephatswa
149_0079 e fosahetseng e na le
149_0080 ke mahodi a patile maeba
149_0082 short story writers
149_0083 ba a ka ba o
149_0085 ka tjhepisi ya stimorol e
149_0087 lifetime achievement award
149_0088 international space station
149_0089 tshwanelehileng di amohelwe ke registration
149_0090 ba ramautla ba re etsisang
149_0091 polasing le menontsha e na
149_0092 memela le meketeng o ratana
149_0094 ka hlahlobong o a thalatsa
149_0095 northern mariana islands
149_0099 saint john river
149_0101 ditsela le ditlwaelo ho ya
149_0104 traditional chinese medicine
149_0106 baithaopi le ba sebeletswang ke
149_0107 ha e le a ditsietsi
149_0108 american film directors
149_0110 se ke la ntlhobaetsa ke
149_0111 ba ne ba le pelotelele
149_0113 states national film
149_0114 be ho sa ba le
149_0116 re iqeke emoholo esere ra
149_0118 international phonetic alphabet
149_0120 ya boshodu ho tjhwatlwa ha
149_0121 european economic community
149_0122 ba ba tshwasehe kutlwisisong e
149_0123 e otlolohileng le ha e
149_0124 thaka a be a se
149_0126 tshebetso e bolokehileng ya ralewa
149_0128 ba lekganyane ho sa le
149_0130 ke re ke se ke
149_0133 matshwenyeho ao ba teaneng le
149_0134 re be re tsohe le
149_0135 ke no ebola tapole habedi
149_0136 latetswe le ha e le
149_0137 e re ha mafube a
149_0138 thero le mo kgoqola le
149_0139 ka ya kankere le ho
149_0140 kgalemetswe le ha e se
149_0141 nkgwebetha la re ke le
149_0143 tu ha kgahliso a mo
149_0144 a molaotheo a mosebesetsi wa
149_0145 le lehwatatanyana le saballetse ho
149_0147 ba buisanang qotsong e ka
149_0148 mmusong wa provense ya freistata
149_0149 ho be le ho senolwa
149_0150 se bo bokeletswe le ho
149_0151 eastern orthodox churches
149_0154 ka ditlha ho kgontsha ho
149_0156 terameng ee o ka re
149_0157 wa setlokotsejana a se a
149_0158 boikara belo ba motlolamolao ho
149_0160 o ne a ye a
149_0161 asebesetose e se e emisitse
149_0163 eo o se o qalelletse
149_0164 re o tshwenngwa ke ntaramane
149_0166 le ho rutweng titjhere e
149_0168 tjhee ke ne kekopa matlaa
149_0169 bohloko ba seeta bo utluwa
149_0171 a tsamaye le a e
149_0175 ya dikanao e na le
149_0177 faeba tlelase patsi le seili
149_0178 united states military
149_0179 mo kgelosa le ho mo
149_0180 lehlabathe le kalaka ho ya
149_0182 ya moriti le khanopi ya
149_0183 ka ho rialo ha ke
149_0185 o se a nyetswe ke
149_0186 moshaneso ha ke re o
149_0188 ho iteanya le majoro le
149_0189 sa ho entela feberu e
149_0190 bontsha ho ba sedi mehopolong
149_0192 new york times
149_0194 e ithutwang ho isa puong
149_0196 new age movement
149_0197 australian prime minister
149_0201 wa sepalangwa se sebedisitweng thomelong
149_0203 kgoro ke ha ho kenwa
149_0205 ba ho kgeswa le ho
149_0207 kabelo a sa le monyenyane
149_0208 ke re ke maobanyana a
149_0209 di bopella kahare ho ditekanyetso
149_0215 hoa ho a ka ba
149_0216 o ne a re ba
149_0217 re imatahantse le banka ya
149_0219 se kgopisehe o se hlekefetse
149_0220 ya lekanngwa ha e le
149_0221 ba se ba itshwantsha le
149_0222 ruburiki ho na le ho
149_0223 ba ka tsheptjwang ke ba
149_0224 mabone ya bohlophisi ya ho
149_0225 ka bobare ho ya ka
149_0226 accurate date information
149_0227 e fuphula sa phakwe tsuonyana
149_0228 ndoh le etseditswe ho etella
149_0229 le se ke la ya
149_0230 ke a itahla ha ke
149_0231 league championship series
149_0234 bo fetohakang le f ho
149_0236 ho lefshwa e le tefiso
149_0237 ne o ka satalatsa molala
149_0238 sa mekgahlelo ya ditsiane e
149_0239 ka tlelapa ke ne ke
149_0240 fumanweng ho bafani ba tlhokomelo
149_0241 re re mo tlohelletseng tleneng
149_0242 thipa ka bohaleng ke ka
149_0243 intellectual property rights
149_0245 ho jewang hlenhlenyane ho ya
149_0248 ka o tshwarisa mmamphele ka
149_0250 ba ho qhekanyetsa wa mphato
149_0251 metse ya ditoropo le kgodiso
149_0252 ya sekgutlo e ne e
149_0253 ka ha o le mokapotene
149_0254 le baahisane ba phallela ha
149_0255 sekgukguni ha a le ka
149_0256 le fifi sa phoofolo e
149_0257 o ie mahlokong o ie
149_0258 ditaemane ba ne ba di
149_0259 morumo morethetho metuta ya diphetapheto
149_0260 oo lentswe le ka bang
149_0261 ke pac e tshwanelehileng di
149_0262 environmental protection agency
149_0263 ya ya matamo a ho
149_0267 ba menngweng ka boithaopo ho
149_0268 se ke lahlehetswe ke mamello
149_0269 wa sejwalejwale o tenyetsehang le
149_0270 ba hlanya ho ne ho
149_0272 sa di ja le ho
149_0273 ho re ha e ye
149_0274 infant mortality rate
149_0275 ke re mmao o se
149_0276 ditharollo le ka be le
149_0277 american medical association
149_0278 ha e ka ba kaenyana
149_0279 itebala ho re ba ya
149_0280 patanta eo paloyohle ya dipatanta
149_0282 kalana ya moriti le khanopi
149_0283 nnyane a swaba ha a
149_0284 e na le ho rema
149_0285 seporo le dikou le ho
149_0286 sheshe le ha e le
149_0289 meraro ya ho hweba ka
149_0291 royal australian air
149_0293 e se hlole e ba
149_0294 trade unions ho ba fa
149_0296 dintja di se di thotse
149_0298 e ikemelang e le notshi
149_0299 music awards winners
149_0305 be pelonolo a be le
149_0306 ke ka maswabi ha ke
149_0310 ho sisinyeha ho hosesane ha
149_0312 keletso e ahang e buang
149_0313 ho fokotsa le ho fedisa
149_0316 se ke lemoimana ha ke
149_0317 renkeng ya baragwanath barekisi ba
149_0318 indastering ya polatinamo ha ho
149_0322 ka hapeterose a ne a
149_0324 mesebetsing e tshwauwang ke baithutimmoho
149_0325 kotjwa ke motshwaruwa ka ho
149_0329 a ne a sa tsube
149_0331 american musical theatre
149_0332 le hlolwa ke ho itjarela
149_0334 tsekisang be e se e
149_0336 actor academy award
149_0337 e fosahetseng ya dihlooho le
149_0339 o tseba le ho utlwisisa
149_0341 ho ba morupellwa wa hlophollo
149_0343 holy roman emperor
149_0345 rekisa ditholwana ho lokisa ditshupanako
149_0348 le se ke la hlokomoloha
149_0349 ne di qetetse ho tshwauwa
149_0350 morwetsana eo o a se
149_0354 missing living people
149_0355 didietsa le lehlokwa bo ha
149_0356 dipenshene a ho se akaretse
149_0358 re kg kg kgrr kgph
149_0360 lebiswe ho mohiriwa mokodi ka
149_0362 musical groups established
149_0363 lesika le atolositsweng la ditswala
149_0364 australian football league
149_0367 momahane meharo le boikgohomoso ba
149_0368 le ho thuhiwa ha ho
149_0370 matshoho ka mokokotlong ho ya
149_0372 ba ditsotsi ba ne ba
149_0373 ke le kgethong ya beryl
149_0374 le tjhabang le le dikelang
149_0375 apeswa pobodi e se e
149_0376 f le g ha e
149_0381 ka elektroniki ceftu e entsetswelopele
149_0383 british virgin islands
149_0385 hoitshepa ha ke makale ha
149_0386 lebaqolotsi o ne a ba
149_0387 free open source
149_0390 a re ha ho tume
149_0392 ba ma komonisi le ho
149_0393 ho kwahela kisara le dipeipi
149_0395 o amohelehang o re o
149_0396 ka kahlolo ya seporofeshenale e
149_0397 european union eu
149_0398 o ke ke wa atleha
149_0399 pampiri ena e na le
149_0402 le mokgahlelong wa boraro wa
149_0404 la human resources ke ha
149_0405 ho na ya ditlwebelele ka
149_0406 mosuwe eo o ne a
149_0407 ha ba ha re kokololo
149_0413 wa dithothokiso ee ho ka
149_0420 sehlahiswa se phethe tsweng se
149_0422 tsomana le ho baballa le
149_0423 tshitwe le ne le ba
149_0424 liberal democratic party
149_0426 a tloswe re bee e
149_0427 a se na motso wa
149_0428 cosmic microwave background
149_0433 diteko dihlahlobo diporojeke le diasaenemente
149_0435 united states federal
149_0437 ka re tshomo ee e
149_0440 romella diforomo di return e
149_0442 president jimmy carter
149_0443 amino acid residues
149_0444 le ho a le b
149_0445 ba ntshatjotjo ho fumanadithendara tseitseng
149_0448 buisanwe ho shejwana ka la
149_0449 american political writers
149_0450 bo sa bonweng ka mahlo
149_0451 eo a mo tjhehelang leraba
149_0452 haba qalasekolo ba batlelwamotho ya
149_0454 o ne a tshositswe ke
149_0455 le ya khomishene le ho
149_0456 eo wa monnamoholo o shapuwe
149_0457 tjhev o hlolehile ho nkamohela
149_0458 ao re a lemang di
149_0460 re na ha e le
149_0461 tlatse ka ho arohanya ditlhaku
149_0462 o se ke wa ikopisa
149_0463 ke ke be wa ba
149_0464 la netefatso ya tshehetso ya
149_0465 le lephoka dintsintsi le menwang
149_0469 ke ne ke sa bula
149_0470 a bo kgile ka dikgopo
149_0471 ho se be le botsitso
149_0474 o re phetelang se kileng
149_0476 o haellwa ke tlhalohanyo le
149_0477 minor league baseball
149_0478 a e sietseng rehauhetswe dilemong
149_0481 mafahla ke ha a ne
149_0482 new york university
149_0483 medumo ya makoloi le dimotokara
149_0485 di basin di contour le
149_0486 le eo ho dumellanwang ka
149_0487 regular season game
149_0488 otara ha o hloke ho
149_0489 wolfgang amadeus mozart
149_0493 new york giants
149_0494 tharo masilo le ntshiuwa ba
149_0495 ka lengolo la semmuso mohlahlobi
149_0497 fopha ho sututsa ho mo
150_0001 native american languages
150_0003 ho kgoneha ho be le
150_0008 le sa utlwahaleng a sa
150_0009 le hlomphehileng mohatsaleqwetha o nyametse
150_0015 mr t a ba a
150_0018 relatively small number
150_0019 le mepeletotshwano mahlalosonngwe malatodi le
150_0020 ho be le ho se
150_0021 ba seafrika bo hlomptjhwe o
150_0027 united states presidential
150_0028 kgwebo e ka thoko ho
150_0029 le se ke la fokodisa
150_0031 ke haho se ho ropoha
150_0032 late middle ages
150_0037 ha e ke be e
150_0039 o na le kgwao ka
150_0041 a hwehla ka letsoho ho
150_0044 le diambulense e ne e
150_0046 e mebe eo e ka
150_0047 ho inkela diqeto ha ba
150_0048 ekasitana le marangrang a dikgokahano
150_0050 josip broz tito
150_0057 e hopotseng e sa wele
150_0062 papua new guinea
150_0065 dar es salaam
150_0066 e ne e se moitlami
150_0073 eo a e jetseng ha
150_0074 be se atametseng ho sa
150_0079 e tshabe ho ba tlohedisa
150_0081 ho sebedisetswa ho lekanyetsa diphetho
150_0082 ho ba le boitemohelo ditsong
150_0089 bothile dinonyana di ipatile dirobeng
150_0090 achievement award winners
150_0095 mekgeng e sa sireletsehang ba
150_0096 ne a se leqhoko a
150_0098 american sign language
150_0102 sa ye ngakeng o e
150_0104 ya ho se itekanele e
150_0105 a ba kadima masenke le
150_0106 o ke ke be wa
150_0107 ha ke re mmao o
150_0114 guano islands act
150_0118 tlung eo le e kopanetsweng
150_0119 ba saps criminal record centre
150_0120 e a ko hlo ntjwetse
150_0123 united states district
150_0125 biri a re o hlaphola
150_0126 roman catholic priests
150_0127 afidavite e arabang e kentsweng
150_0129 le re kgethollang le re
150_0130 ha di a behwa ka
150_0134 emelang le ho di fa
150_0136 ya homeland ya qwaqwa le
150_0137 lekoteng ho tu o balabala
150_0138 le ba senyehetsweng ke tsonad
150_0139 ba re morwa o bohlile
150_0145 se fofonela se a kopola
150_0146 ho re ha aphela o
150_0147 asian nations asean
150_0148 e ka lelefala le ho
150_0151 ya dintla le tsepamo ya
150_0152 se inong ho bolellana makunutu
150_0153 o se o e lebetse
150_0154 a mo atamela ba buabua
150_0155 ke tiile ha ke re
150_0157 ba itokisetsa ho ya moketeng
150_0159 le ho bo labalabela botsofadi
150_0161 e kentse leoto ka kgamelong
150_0162 re ho ntatate ba ye
150_0163 e kengwe setempe ke rejistra
150_0164 president richard nixon
150_0167 ke ya banhlankana le methepa
150_0170 ba sa mamele le ho
150_0175 tadi o tsejwa ka mereto
150_0176 american revolutionary war
150_0178 ne a sa utlwisise a
150_0180 ya sejwalejwale e nkehang ha
150_0183 fapafapanang e fapafapanang e ka
150_0184 ha a ka a fetohela
150_0185 ya diindaseteri e beheletse ka
150_0186 ya sethathong ho ka ba
150_0187 king philip
150_0191 thakadi di fatelang ka teng
150_0192 ho tsetelwa moruong le dikarolwaneng
150_0193 ba o hemang ha o
150_0201 ne a hlabile dioka e
150_0203 verify source date
150_0208 nkong ke molebedi eo ho
150_0210 o ne a le makgenefanyana
150_0213 mehlengwa ka seipheo sa ho
150_0214 wa monnamoholo o shapuwe ho
150_0218 academy award nominations
150_0219 day saint movement
150_0225 professional sports teams
150_0232 kgutlong sa mmila o kenang
150_0241 le kgaphatseha ho setloholo sa
150_0244 los angeles area
150_0245 se lebelletsweng k h r
150_0251 ho ba le phihlelo ya
150_0254 ba ne na ye ba
150_0260 ka ho sisinyeha ho hosesane
150_0262 ha e ba le tlokotsi
150_0267 ne e opa a nyokgoloha
150_0268 ke advocate le ha ho
150_0269 ha le boulelle sowana ba
150_0272 le ho bohehang ho sa
150_0273 o ne a boetseatshwerwe ke
150_0275 le he e ye e
150_0277 chicago white sox
150_0279 e kathoko ho tlhopho e
150_0283 le ho mo qhobella majwe
150_0284 booki di lefelletswe kemosuwehlooho tsholo
150_0287 di romeletswe ka thelefekse di
150_0288 ke maranran g a fepelang
150_0290 british overseas territory
150_0291 le dintwa vmme e ne
150_0292 ho hlotjhwa ha ba di
150_0294 o tswile kotsi e mpe
150_0296 largest ethnic group
150_0297 phemiti ya ho kganna ya
150_0298 roud ya wto re kgodisehile
150_0301 ka sekotlong sa phakiso le
150_0302 di anti retroviral le ya
150_0305 efatshe wa rakebi selemong se
150_0310 se ne se hlabehile habohloko
150_0315 molamu o kopane le tshepe
150_0317 oo ho ne ho le
150_0318 badan pusat statistik
150_0320 di sa fohlwa o a
150_0329 kgothaletso ya boikgwantlello le ho
150_0331 dijonyana snacks a tsholwa ka
150_0333 ho ya ka mosebettsi wa
150_0335 di le matlapa di thella
150_0336 screen actors guild
150_0340 ludwig von mises
150_0342 o ne a sa suthe
150_0345 eo o sa e utlwisiseng
150_0346 european union le ahile diphaposi
150_0348 supreme court ruled
150_0349 le phehiso e tlotlehang malepeng
150_0350 tsabona metseditoropong ho na le
150_0354 samina o imme ya nyarosa
150_0356 ho ba le rejistara e
150_0359 eo ha e ka kgaoletswa
150_0367 se tshwasang dihlapi ke sekepe
150_0369 d e le f ba
150_0370 american football conference
150_0372 international labour organization
150_0373 onelopele ya tjhata ya ho
150_0374 burundi comoros sudan haolo ho
150_0375 a hamme e tswele le
150_0377 gibbs free energy
150_0381 ka sms sms benefit lookup
150_0386 late eighteenth century
150_0391 madison square garden
150_0392 ho fopha ho sututsa ho
150_0397 e yeng e be ya
150_0399 a qela holeoto o ne
150_0400 na le tokelo ya ho
150_0402 saenneng wili ya sethato ha
150_0403 ka ke ne ke le
150_0407 ha ke e hloke le
150_0408 bokgotsing ba ke ke ba
150_0409 matsete a bee a thekiso
150_0413 le ho phutho llwa ka
150_0414 e lwanela ho ya ho
150_0415 hela ke itlamela ke le
150_0416 english civil war
150_0418 a ne a sa fihlelwe
150_0422 civil class
150_0423 mesi mehudi dikgase le diphofudi
150_0426 ke basebeletsi matloleng a dibenefiti
150_0427 leru le lefubedu t w
150_0428 chief executive officer
150_0431 wa kabo ya mangolo nqf
150_0432 le hamohlomong o ne o
150_0433 e mehlano ya dilotho ho
150_0434 seturupu se se kgubedu botlolwana
150_0437 se mo ise yunivesithing o
150_0439 australian air force
150_0440 western roman empire
150_0441 o re ho a be
150_0442 phatladitse masedinyaneng dithelevishineng le dibukaneng
150_0450 ne o re o a
150_0452 na le manyofonyofo a swabisang
150_0453 ho ya ka kutlwisiso ya
150_0454 poho ya mokgerane e ka
150_0460 ha o pepeneneng o ka
150_0461 sa thapiswake boikaketsi bo kgemang
150_0462 re qhau a mo sudubanyafatshe
150_0463 unrestricted submarine warfare
150_0464 wa thuto le thupello e
150_0467 moepa oo ke tshwanelwang ho
150_0468 ka ha ho ne ho
150_0471 oo le ha a ne
150_0472 pope pius
150_0475 ho ithuteng le ho rutweng
150_0476 le adv j de lange
150_0477 ya remittance advice ya nothisi
150_0480 ntsi ba se ba e
150_0481 wolf whistled le ho betwa
150_0482 ho ya ka dikarolwana le
150_0487 inspector of mines ciom ya
150_0488 khompuyuteng a ke ke a
150_0490 re di etse mohatla kgwiti
150_0494 na ba e rutilwe ke
150_0496 o ne a thabiswa ke
150_0500 le ho tlanya typing o
150_0502 tiehiso ya ho phethela dikarolo
150_0505 se ka mpitsa moratuwa wa
150_0508 ditshisinyo di ka kgonahala ha
150_0509 camp david accords
150_0513 sepheyo ke ho nyalanya boitsebelo
150_0514 e ya hatiswa e saenwe
150_0516 union member economies
150_0517 ya a a nkellang hloohong
150_0526 ne bo hlomola ho le
150_0527 ho ya ditameneng shu ha
150_0534 ya tsitsinngwa ke diheshana bomafisa
150_0535 mekotla ya mashala ka veneng
150_0537 d ho hokahanya le ho
150_0538 etshweu e lebanta le letsho
150_0554 e dumelletswe ho ka eketsa
150_0557 se di sebedisetsang ho kenyakenyana
150_0559 ho batjhana ba ka ba
150_0562 public international law
150_0564 nyamela ho ba ntidi ha
150_0565 hee ke re o nkgitlile
150_0570 ya tuma ka ho reketla
150_0572 dipuo ho phatlalatsa le ho
150_0574 israeli prime minister
150_0577 sa rena le ho rena
150_0586 eo ho bafuputsi ba ikgethileng
150_0589 re thobela diponono di thobelwa
150_0590 le ho fepela basebedisi ba
150_0594 le sireletswe le ho notlellwa
150_0595 ka hodimo ha ho tshwauwa
150_0599 boitjaro ho tshepahala ha botsamaisi
150_0608 ke sefeng se re tlisetsang
150_0609 ya vii c le ya
150_0616 states armed forces
150_0623 topological space
150_0626 o se a re ptjangptjang
150_0627 otto von bismarck
150_0635 le molatswana o phallang lesodi
150_0638 le ne le le lekgubedu
150_0640 application programming interface
150_0643 soviet socialist republics
150_0647 e qaqisitsweng sehlomathisong sa a
150_0648 le ya metjhining e betlang
150_0649 di bapisa ie ho di
150_0650 captain james cook
150_0654 eo ke e palamang ka
150_0656 o ke ke wa kotjwa
150_0658 ditonele dikwari le ho ripitlwa
150_0660 ke mo tshabang ho nkgisetsana
150_0661 single transferable vote
150_0668 internal combustion engine
150_0671 le lera la lefufuru lefufuru
150_0678 coronary artery disease
150_0682 nuclear weapons program
150_0684 o se o lahlehetswe ke
150_0687 ba kwetliswang le bakwetlisi bakwetlisi
150_0688 boholoholo ho ne ho na
150_0690 ba di embryo di ova
150_0692 mahlaba ha ba mmolella ho
150_0694 ba ngodise sehlopheng sa bolo
150_0700 church turing thesis
150_0701 asian financial crisis
150_0702 dibanka mabenkele a mabenyane dikgwebo
150_0704 di se di le mothating
150_0705 a se tlohellwe a ntshe
150_0708 o mogn oo ba o
150_0709 soviet red army
150_0710 early church fathers
150_0713 la re ke le nyaye
150_0715 re ke mo hloile hampe
150_0716 wa dulela ho rabaka tje
150_0718 berne convention berne convention ke
150_0719 le meho polo ho lekaneng
150_0720 metal gear solid
150_0721 se sa lekanngwang se ke
150_0723 ba matshwele a baqobelli ba
150_0724 ke thabele manyofonyo ao o
150_0726 ya deedsweb ka ha ho
150_0729 ho tliswa ke tshebedisanommoho e
150_0730 le lefatsheng la komello mahwatateng
150_0733 la ho hlahloba la rebate
150_0734 mosuwehlooho a ne a mema
150_0739 ha ke a re ke
150_0740 ba di faetseng makgistrata a
150_0753 sa lepoqo ha se kgutse
150_0755 ne a ye a sadise
150_0757 tu ka ho panya ha
150_0758 ba di je ba ke
150_0760 ho re o ne a
150_0761 ba tsheletseng ba thontshweng ke
150_0763 ne a sa itlwe ka
150_0768 ho ya ka merabe moetlo
150_0770 established diplomatic relations
150_0774 e sebeletsang e ikaraballang ho
150_0775 o thulana le meleko ya
150_0778 o ntshofaditsweng a na le
150_0779 ho buuwang ka yna e
150_0780 sa khiro se saennweng ke
150_0781 o di tsebise ka kopano
150_0782 o qeta o be o
150_0783 sekete ya thelevishene e kwalehileng
150_0784 hangata ka ho nepahala le
150_0791 economic cooperation apec
150_0792 oriental orthodox churches
150_0793 ho ewp e be ba
150_0794 le ditswejane ho le mathisa
150_0796 dipatlisisomme a mo eletse ka
150_0804 dingaka di be di phethile
150_0806 phousetara e shebehe e le
150_0807 di se di kgethilwe di
150_0808 dikobo le ho mo busetsa
150_0810 human development index
150_0811 pope benedict
150_0812 tharo a b le c
150_0815 bo sa lokang bo ka
150_0823 le sa kgetheng mofo ho
150_0832 north atlantic ocean
150_0835 final resting place
150_0836 ba ke re o nkgumamele
150_0839 current account deficit
150_0841 diteboho ho metswalle le bomphato
150_0848 golden globe award
150_0856 radiokhasete a di rekise a
150_0861 bo bottle ha a ka
150_0862 e ne e se bo
150_0866 bo be bo o timella
150_0867 john quincy adams
150_0870 a ka a ahlolelwa ditlolomolao
150_0872 le phallo ya kapetlele e
151_0002 di sa fetohe bophelong ba
151_0004 k o ke ke wa
151_0006 wa silivera o pshatlehile ke
151_0008 le ha ke re ke
151_0009 history important documentation
151_0010 di timanwe e se bohobe
151_0024 o se o iphetotse moleleri
151_0025 mo eletsa ka ho re
151_0027 principal ideal domain
151_0031 ho petsoha le ho epeha
151_0035 ba ke ba hahlwe ke
151_0037 office administration ka ngollano ha
151_0041 bo boletsweng leqepheng la ditaelo
151_0044 major political parties
151_0050 ha ho so etsuwe o
151_0052 cardiovascular disease deaths
151_0054 ho tla fanwa ka tsona
151_0056 khanselara ya woto e ka
151_0057 e nyolotswe ka diphesente tseleshome
151_0059 e ne e le mohobelo
151_0064 se nehuweng ho sa tsotellwe
151_0068 exclusive economic zone
151_0071 v ka ho re le
151_0072 dipotsopotso o ne a se
151_0073 e sa potoloheng e utlwisisehang
151_0074 di di tsamaise di di
151_0076 ha e sa laele e
151_0079 ho se ho se monate
151_0080 south american countries
151_0081 hwa be ho se ho
151_0083 o sa tshwasetseng ho ja
151_0084 e thusang ka ditjhelete e
151_0088 peisong le ha ho le
151_0089 kamolomo o manyaditsweng ka mafuraa
151_0093 belaellwang a utswitse diruuwa jj
151_0094 elections took place
151_0098 ba ho ngodisa bokudi ba
151_0101 batsamaisi ba mananeo le dibohodi
151_0108 ke ho qhwala ho mo
151_0110 o ithutile ho le ho
151_0111 be a se a neheletsa
151_0112 le g thuo le ditabatabelo
151_0115 le ho hasanngwa ha dikhondomo
151_0120 morabaraba thellisane phupekalefe di ne
151_0123 eo re e tsamaileng jwaleka
151_0126 track speed skating
151_0127 eastern bloc countries
151_0128 animated television series
151_0129 ke boriki eo ka bokgutswanyane
151_0131 fact date january
151_0132 ba sa ikamahanyeng le bcea
151_0136 eastern orthodox church
151_0137 o se ke wa nkuka
151_0141 hanwa ha mokgatiso a sa
151_0142 ya meputso eo ho ka
151_0143 kgweding ya phato mantsiboya ke
151_0144 matle haholoholo ha ho shejwa
151_0148 a sa sela meqomong a
151_0153 a oona a ditsamaiso ka
151_0154 ha di tlo phatlalatswa ho
151_0155 ne di mphapanelana di mpakela
151_0161 mrm e ne e le
151_0162 ozone layer protection
151_0163 fact date march
151_0168 e ne e le qohollehile
151_0169 central processing unit
151_0170 ee na o ka re
151_0173 phedisano a shebane le ho
151_0174 tennweng ke kedibone e mesesane
151_0175 ne e le ya v
151_0183 e ne e mo rute
151_0185 le ne le kgaphatseha ho
151_0190 re sa lwana ha e
151_0191 high school students
151_0193 united states environmental
151_0194 military coup
151_0198 e le afeng moikopedi a
151_0199 e se e le dithungthung
151_0201 dihela dikgala molatong ono wa
151_0205 hamohau a mo shebisisa a
151_0209 political parties established
151_0210 o be o sulafallwa ke
151_0215 lehano e sa kgoneheng ha
151_0219 tlhahisoleseding yohle eo o re
151_0220 org wiki wikipedia
151_0222 toropong e ne e le
151_0223 ha di ke di be
151_0227 ka baka la ho kula
151_0229 french revolutionary wars
151_0231 science fiction films
151_0236 registrar of animal improvement e
151_0237 metal musical groups
151_0240 a ka na a phahamiswa
151_0241 mosotho le ha a se
151_0243 ke o antsha phooko ha
151_0251 o ke ke wa keketeha
151_0253 tlaleho e itshetlehileng bokgoning e
151_0256 ke ya thabelang ho rongwa
151_0257 ya ho ipuella ho eo
151_0258 ha se re mmopi o
151_0271 ke tshwanelwang ho o hlwa
151_0273 ha a se a hodile
151_0274 ya ho thonngwa le d
151_0275 ntlha le ha e le
151_0276 states supreme court
151_0277 ee di ne di etsahalla
151_0282 aaraba ee ke ne ke
151_0284 to information act ke ho
151_0285 ke ke be ya phaellwa
151_0286 lebisang popong ya tlhalohanyo e
151_0287 ho itekola le ho itshupa
151_0288 o ntlela ka kedibitlahadi ya
151_0290 bo tlasetlase bo ikemiseditse ho
151_0292 dihetse tekete he mohaeso o
151_0293 new prime minister
151_0297 free trade area
151_0298 hahlaula ha e le boqheku
151_0299 se emele ho phatloha ho
151_0303 popular tourist destination
151_0304 humid subtropical climate
151_0305 le vitamini e ka ho
151_0309 ne e le tjaka hara
151_0310 ho tsebisa gems mabapi le
151_0312 native american languages
151_0313 ho kwalwa ho sa hlokeheng
151_0320 le hlomphehileng mohatsaleqwetha o nyametse
151_0321 e se e itshetjha e
151_0326 mr t a ba a
151_0327 ho lothanwa ba lothuwang ie
151_0331 ho be le ho se
151_0332 ba seafrika bo hlomptjhwe o
151_0334 boitsebiso ho thibela pepeso e
151_0337 wa bodulasetulo ba sadc ho
151_0338 united states presidential
151_0339 kgwebo e ka thoko ho
151_0342 ke haho se ho ropoha
151_0343 late middle ages
151_0346 jang setoto ka lere ka
151_0352 a hwehla ka letsoho ho
151_0353 ispia monnafeela a kwetelwe ke
151_0355 le diambulense e ne e
151_0361 josip broz tito
151_0366 o be mohlodi lengwele le
151_0367 mo jesa ba mo robatsa
151_0368 e hopotseng e sa wele
151_0369 ba ne ba sebaqaleletse ho
151_0370 ka phaphosing ba ne ba
151_0371 new york mets
151_0373 papua new guinea
151_0374 ho ka bakela ho feroha
151_0376 dar es salaam
151_0377 e ne e se moitlami
151_0380 sa nwajwala tlhase ya pososelo
151_0382 a se a sa hlomphe
151_0383 a ka nkuwang e le
151_0385 be se atametseng ho sa
151_0391 ne e le moqebelo ka
151_0393 ho ba le boitemohelo ditsong
151_0394 le diphetoho ho ya ka
151_0395 tjheka moriana thoteng ha a
151_0397 eo moradiae a sa lokelengho
151_0400 bothile dinonyana di ipatile dirobeng
151_0401 achievement award winners
151_0402 ke lebohile ho menahane ka
151_0403 a lefshwa ho ya ka
151_0404 ya lebalang moetsuwa ha a
151_0406 mekgeng e sa sireletsehang ba
151_0407 ne a se leqhoko a
151_0408 ka kakaretso le c ho
151_0409 american sign language
151_0410 ka ha ho boletswe le
151_0414 phatlalatso ya ho lokollwa ditlamong
151_0415 ya ho se itekanele e
151_0420 e sa le ka madungwadungwana
151_0422 ya ho tsamaela ho lebeng
151_0425 guano islands act
151_0427 tshwela tb e ipatileng e
151_0429 tlung eo le e kopanetsweng
151_0430 ba saps criminal record centre
151_0434 united states district
151_0435 wa kelly o ne o
151_0436 biri a re o hlaphola
151_0437 roman catholic priests
151_0438 afidavite e arabang e kentsweng
151_0439 dikgoho botsikwane bo ba qete
151_0443 ya bonna le bosadi ho
151_0444 queen elizabeth
151_0445 emelang le ho di fa
151_0446 le ho bola ha maitshwaro
151_0447 ya homeland ya qwaqwa le
151_0448 lekoteng ho tu o balabala
151_0450 ba re morwa o bohlile
151_0452 otukang malakabe a maholo a
151_0456 se fofonela se a kopola
151_0458 asian nations asean
151_0462 ya dintla le tsepamo ya
151_0463 se inong ho bolellana makunutu
151_0464 o se o e lebetse
151_0465 a mo atamela ba buabua
151_0466 ke tiile ha ke re
151_0467 ba se ba tsamaile ho
151_0469 kodisang o ne a sa
151_0470 le ho bo labalabela botsofadi
151_0472 e kentse leoto ka kgamelong
151_0473 re ho ntatate ba ye
151_0474 e kengwe setempe ke rejistra
151_0475 president richard nixon
151_0476 ke ho re ba banyane
151_0478 ke ya banhlankana le methepa
151_0479 o nkopile ke ne ke
151_0481 ba sa mamele le ho
151_0482 ne a tshohilehaholo a sa
151_0483 ho iphaphatha le lebopo la
151_0484 o dulelletse ho hlorisana le
151_0486 tadi o tsejwa ka mereto
151_0487 american revolutionary war
151_0488 sa mahwelereng se ahilweng katoropong
151_0489 ne a sa utlwisise a
151_0490 he ha re mo adimeng
151_0495 ha a ka a fetohela
151_0497 ya sethathong ho ka ba
151_0498 king philip
151_0500 itshepile noha ha e ntshwe
151_0502 thakadi di fatelang ka teng
151_0503 ho tsetelwa moruong le dikarolwaneng
151_0506 phahamisa ditokelo ho kenyeletswa tshebdiso
151_0507 eo a nnileng a e
151_0508 e tjhaelwe monwang ke ba
151_0510 ahile london le moahlodi arthur
151_0511 ho ikopanya le bafepedi ho
151_0514 verify source date
151_0519 nkong ke molebedi eo ho
151_0523 bo ne bo sa amohelehe
151_0525 wa monnamoholo o shapuwe ho
151_0529 academy award nominations
151_0530 day saint movement
151_0536 professional sports teams
151_0540 podumo ya moemanotshi ya ba
151_0543 kgutlong sa mmila o kenang
151_0545 wa kgwedi le kgwedi o
151_0550 lokolla le ho re ho
151_0551 di se o tshwenye o
151_0553 tshimolohong o tsebile e sa
151_0554 se kwetsweng ho ya ho
151_0555 los angeles area
151_0556 se lebelletsweng k h r
151_0560 ka ho tsuba boikwetliso le
151_0567 matleng le mananeong a matlafatso
151_0569 ha e le ho rothisa
151_0570 le se tshohane le re
151_0571 ka ho sisinyeha ho hosesane
151_0574 mohwehadi ha di thabiswe ke
151_0575 le ho tsetela le meruo
151_0576 le diqhwaha le dipudumo ho
151_0579 ke advocate le ha ho
151_0582 e tla be e le
151_0583 le ho bohehang ho sa
151_0584 o ne a boetseatshwerwe ke
151_0586 le he e ye e
151_0587 o re bopileng ke a
151_0588 chicago white sox
151_0591 a ke ke a tata
151_0594 le ho mo qhobella majwe
151_0597 tatello le karabelo phehella ho
151_0598 di romeletswe ka thelefekse di
151_0599 ke maranran g a fepelang
151_0602 e thehilweng ho nyehelo ho
151_0604 ke ne ke le e
151_0612 a nbotsa ho re na
151_0613 ne ke re o mo
151_0615 cape breton island
151_0621 minister margaret thatcher
152_0001 president franklin
152_0002 o sa qoqweng ke dipapiso
152_0003 e sa nepahalang e sefuwe
152_0004 o se a mo kopetswe
152_0005 re tsho ho ne ho
152_0008 o ithetsa ka tsiemokopu e
152_0009 morabaraba sethetsabadisana ha ho bolelwa
152_0011 le sa le letjha ho
152_0012 ne a futsitse lebitsola haehobanee
152_0013 ke eo o kwenehetswe ke
152_0014 ka ha ho bontshitswe tekodisiksong
152_0016 greenhouse gas emissions
152_0017 yom kippur war
152_0018 ne o kopile koranta ho
152_0019 states coast guard
152_0020 polakwang dihekeng le mamating a
152_0021 clarify date january
152_0022 ho thweng ke hotsitsi eo
152_0023 ke ikutlwa ke imolohile moyeng
152_0024 kgotsa mmamoleko ha se dingwetsi
152_0025 a feheletsana ba a ithoka
152_0026 di hlwekile di sa tshwehle
152_0029 ie seoa se unang ho
152_0031 a fetotswesekatana semamina seiphumolo sa
152_0032 dihlekehleke madiboho marokgo le metjhophoro
152_0042 ke ne ke safufulelwa ho
152_0046 billion years ago
152_0050 ha a ke ke a
152_0053 o amohetsweng ka ho qoholleha
152_0054 adelaide tambo o ne a
152_0055 eo re mo tswetseng o
152_0062 o ne a pudukane ho
152_0064 air traffic control
152_0065 ho hlahlobisa le ho ntjhafatsa
152_0066 apesa ho kupetswe bofeela ba
152_0068 lokodisitsweng ke mofuputsi ho kenyeleditswe
152_0073 procedural programming languages
152_0077 ne bangongoreha meyeng ha ba
152_0078 ho na le di hansard
152_0081 oo o be o mo
152_0084 momahanyo le ho boikamahanyo ba
152_0085 e a nenwa naheng ya
152_0087 ha ke re o utlwile
152_0090 ka motjhanae ontse a hotse
152_0095 natural gas reserves
152_0096 c ho ngangisana le ho
152_0098 appointed prime minister
152_0100 ka ho ngolla moromowa ho
152_0101 a itlhompholle ka ho phetela
152_0104 le moputswa pududu a sa
152_0111 e hokahaneng tlwaelo ya ho
152_0113 melaetsa ya ditshoso ya ditshokelo
152_0114 na ho sehwajwang ho rokwa
152_0115 a ikitlaheditse ha e le
152_0116 re ka e fihlelang ke
152_0117 thothokiso le ya sengolwa sa
152_0119 ya ho fa bangga ba
152_0120 e le ha ho jewa
152_0121 sports clubs established
152_0122 lokiswa ha masalla a setopo
152_0124 boahisani le european union maelana
152_0126 ya ho ba mahlabeng ha
152_0128 a b c d o
152_0130 ke kene morerong oo wa
152_0131 letlole la ho ya pensheneng
152_0132 world heritage site
152_0133 kgothaletswe ho iqalla le ho
152_0134 rarahane e na le ditumelo
152_0135 e moholwanyane ha a kopuwa
152_0136 be ho petsohe le mafika
152_0137 ka tshoha ke se ke
152_0138 ya bosebolelo ya ho qhelela
152_0139 o ba siya ba le
152_0140 ka phaposing ya ho phomola
152_0141 citation needed april
152_0143 tafoleng eo ho tsebiswang ho
152_0145 le se le mo rutile
152_0147 human rights violations
152_0148 ho re ha e a
152_0151 le baphedisuwa ba ka e
152_0154 american league championship
152_0156 a itshehela a ba a
152_0157 mookgo o ne a iballa
152_0158 containing video clips
152_0159 a post graduate di institjhusheneng
152_0160 methodist episcopal church
152_0161 re se re kgenne e
152_0164 manufacturer for agoa particulars di
152_0165 ne o le bolepolepo o
152_0166 institushene e tshepuweng ka ho
152_0167 ke ke ha eba bonolo
152_0168 tu ha ho sa na
152_0169 ha o re o a
152_0171 a rarahana di a lohellana
152_0172 kuruetswa ke ho re a
152_0173 ba hlwauweng ka ho ya
152_0174 eyes wide shut
152_0175 high seas fleet
152_0176 le bitleng la mmaletrato le
152_0177 kekgalefo ya re ha mmatshokolo
152_0180 ke utlwile bothabiso ba re
152_0181 homo phopholetsaka ka mokgwanyana o
152_0182 le ho se ba fe
152_0183 ho phethela boikwetliso ba thapameng
152_0184 free software programmed
152_0190 round table le rotary le
152_0192 ba bolotsana ke re ha
152_0194 ho ba ramotse tikolohong ya
152_0195 tefo ditshehetso le menyetla e
152_0197 oo ho ona mongodi a
152_0200 se tsotellang le se tsepamisitseng
152_0201 wa mooki tliliniking e ka
152_0203 o be o mo lakaletse
152_0204 ya qositsweng ya lokollotsweng ka
152_0205 le mosenekeng ke ha di
152_0206 ke o tlele ka bohlanya
152_0207 bafubedi ba re tlere ke
152_0210 trust ya ntsahetsopele le ka
152_0211 e se e le motsheare
152_0212 etlare ha ke tea kalala
152_0213 ya mo fenetha ha ba
152_0214 mekga e thusang ka ditjhelete
152_0215 ho ne ho tsohwa ka
152_0216 bolaoding ba lekalala fet re
152_0218 e kgotjwa e le maoto
152_0219 ho ja ha o na
152_0221 tshware babelaelwa e be ba
152_0222 ha letsohole fepela mmetso morenao
152_0223 tshenyeho ya mesifa mascular dystrophy
152_0224 kgelohang tokelong ya bohato bofe
152_0225 ho notlellwa ha di sa
152_0226 ho yahae e ke ye
152_0227 summer olympic games
152_0228 sa sebetseng mmba be ba
152_0231 ya makwalata e ka fodiswa
152_0234 official diplomatic relations
152_0235 a se a swentse ka
152_0236 hugo award winning
152_0238 ho dumedisa mmamoruti ha a
152_0239 e be ke mokgethi wotong
152_0240 boqhetseke le ka bohlwahlwa ha
152_0241 thehileng matleng le mananeong a
152_0242 a ikemisetse ho reupella le
152_0243 wa matsibolo a se a
152_0244 le ha hone ho le
152_0249 ba intshang sehlabelo ka ho
152_0250 barutwana le matitjhere ba be
152_0251 tshwenyehile o se ke wa
152_0252 la dikgokahano ba in communications
152_0254 following demographic statistics
152_0256 johann sebastian bach
152_0258 amateur radio operators
152_0260 eo ba mo feheletsang ka
152_0261 sa mo re shwato nkong
152_0262 human rights abuses
152_0263 nafvsa e na le phaposi
152_0264 ba pitikisana ba ba ba
152_0265 ya polokelo le ka kenngwang
152_0267 sa qeaqee le ho qeaqea
152_0268 international auxiliary language
152_0269 ba ba le kgaoho ya
152_0270 ke sa o putsa ka
152_0271 congressional gold medal
152_0272 atomic energy commission
152_0273 se batlwang ke takadimane ba
152_0276 ne ba ye ba re
152_0277 ba pokeletso ya basebedisi ba
152_0278 aung san suu
152_0279 wat sal my nou te
152_0280 ke ke ya ba ka
152_0281 buisanang le ho ngangisana ka
152_0283 ka re makau ke sebapadi
152_0284 mo hlokomedisa ka bobe le
152_0285 irish republican army
152_0286 phe thetsweng se baleha ha
152_0287 ne o ntjodietsa ha o
152_0289 re e ka mo loma
152_0290 mohlomi o ne a etelwe
152_0291 sa nkge leseporo le kgutletse
152_0292 hlotjhwa ha ba di shebelletse
152_0295 ho se ho ho le
152_0297 mokgahlelong o ka tlasenyana koporo
152_0298 e ka ba le ditlamorao
152_0303 e lelefalang le ho kgutsufala
152_0304 na le seroto se sa
152_0305 international maritime organization
152_0306 tebetebeng eo o nkentseng ho
152_0307 a welang makaleng a tshwanang
152_0308 moporesidenteha ho na motshwaruwa ya
152_0312 afidavite e tswang ho setho
152_0315 ha re lekola dikopo le
152_0321 le ho tshehetsana le ho
152_0322 le ja podi ho fetafeta
152_0325 tjhotjholosa ba ne ba le
152_0327 le apesa ho kupetswe bofeela
152_0329 samuel taylor coleridge
152_0331 bavouti ba ingodisitseng ba tlohileng
152_0334 national historic site
152_0335 malapaa utlwilengbohloko kabaka la horeemongwa
152_0336 ya ka tlelaseng setsing sa
152_0338 le ha e se a
152_0341 e ka ba le makukuno
152_0343 mo tshabang ho nkgisetsana mahafi
152_0344 o ka tlasenyana koporo ho
152_0345 maru a matsho a fifetseng
152_0346 mme o sehe mola qetellong
152_0347 john maynard keynes
152_0348 tjhetjha a ba a tjhetjha
152_0349 re ba memmeng ka ho
152_0350 ho bolokwa le ho hlokomelwa
152_0355 o re qobella ho hasanya
152_0358 national security council
152_0359 ya vat vendor search ke
152_0361 dikgwerekgwere le monyediso ya mantle
152_0364 eo re ka mo kgothollang
152_0367 re be ngatanngwe ke pheto
152_0368 o ne a sa thothomele
152_0370 ba ke ke ba jala
152_0371 o sa dumellwang wa ho
152_0373 ka ba o re o
152_0376 e le ba ahetseng tjhankaneng
152_0377 ba fuwe dipilisi ha ba
152_0378 a re itjhuu itjhuu itjhuu
152_0379 bomolao boikarallo ho ba le
152_0380 o se ke wa kenya
152_0381 se ke wakgahlwa ke lefiso
152_0382 na le ho bakang ho
152_0383 mahaladitwe le ditshehlo ka ho
152_0387 se phethahetseng setjhabeng le dibakeng
152_0388 developments pty limited le khayalethu
152_0389 ba ne ba le thekong
152_0390 be e se e kgutlisetswa
152_0391 setsi le ho ba le
152_0394 le phokotsehong ya ho putlama
152_0396 ho se o lefise ditefiso
152_0397 sa cricket ka ho ba
152_0399 di buwang ka boikobo bo
152_0402 bo ke ke ba fetolwa
152_0403 e kgothaletswang ya llifi ya
152_0407 kgomathisetse tshaeno le ho hatisa
152_0408 ho ba pepenene le ho
152_0412 le nehelano e nang le
152_0413 thenthetswa le a nyonya le
152_0414 ba mapolasing balemi rui le
152_0416 la phapang eo e a
152_0417 o lo nkopela tafo ke
152_0419 di be di mela manaka
152_0424 e ka nna ya se
152_0426 ho ne ho phethesela ke
152_0428 malomao ya o hodisitseng ho
152_0430 ho na le dingongoreho ka
152_0435 ho letsa diletswa ka ho
152_0436 e sa hlokomelweng ka ho
152_0437 e maikemisetsong a ho ka
152_0439 a le opela mahofi lekgutlana
152_0440 ka botjhabela ho ho ne
152_0442 ba tjhetjhe ha e le
152_0449 dikgomo ha di na motlohapele
152_0450 a se a bina sefela
152_0452 le lesisithehonyana ho ka phunya
152_0454 le ha hothwe ke lenqosa
152_0456 e ne e le sehwabana
152_0459 mamenemene ba bolotsana ke maqitolo
152_0460 ho se hlomphehe ha ho
152_0461 united nations peacekeeping
152_0462 tsena e ne e le
152_0463 ho sa ohlweng le ho
152_0464 ke ke ya rarolla mathata
152_0465 ditjhate diphousetara dinepe ditshwantsho diselaete
152_0466 steyn delport a fa mmueli
152_0468 o ka be o amohetse
152_0471 wa nomora ditlhokomediso le ditemoso
152_0472 ha ke ne ke le
152_0475 etsuwa ka ho ya ka
152_0478 martin van buren
152_0480 qoqwa ho a tshehwa ho
152_0482 t o rekile senomaphodi ledikuku
152_0484 makgoweng ho ya ntshetsatshebetso ya
152_0485 ho na le mekgwatsamaiso e
152_0487 o bohlile ka letheka maru
152_0491 ba re ba tlosa letshweya
152_0492 ithutla a ba a re
152_0493 o be o sisinye ditlhahiso
152_0496 great leap forward
152_0498 western european countries
152_0500 ke o sekehele sello sa
152_0501 e kengwe setempe e be
152_0504 hothwe ke lenqosa le o
152_0506 se a sa ba tshepe
152_0509 e ya e honyela o
152_0511 re ha ke mametse pina
152_0513 e ne e le ntsho
152_0514 ka ho otloloha lenanetataisong la
152_0516 ka kaho ya institjhushene le
152_0517 ba hlahlobilweng e le ba
152_0519 mabitso a dibaka la afrika
152_0520 le seroto se sa ribollweng
152_0521 ke re ke moihlwe ho
152_0522 best supporting actress
152_0523 wa tlhware ha di lome
152_0524 se le hopotse ho ya
152_0525 id le ya tshupiso ya
152_0526 karolwana e ntshitsweng koranteng jj
152_0527 a ke ke a hlola
152_0529 african union member
152_0530 republican national convention
152_0531 e be e se e
152_0533 a behela ba mmokanetseng a
152_0535 ho le mahleke ka hohlehohle
152_0536 phemiti ya ho romela hlapi
153_0003 e a nkimela e mpolaisa
153_0004 ke leboha kgutlana la ka
153_0005 gabriel gaofetoge wa botswania timbonile
153_0006 wa dikgau le balekane ba
153_0012 hip hop music
153_0016 e ke ng ya sireletswa
153_0017 ba e butswela ba e
153_0018 ho ne hobonahala ho re
153_0024 ke ya medupe e sa
153_0026 hot chili peppers
153_0028 e be ho ba le
153_0031 ba le sa yonajwalo ka
153_0032 ba neng ba ntse ba
153_0033 united states census
153_0036 boiqapelo ya mefutafuta e batsi
153_0042 international civil aviation
153_0044 ya cbnrm e fapane le
153_0046 ka ha e a kgotsosofala
153_0050 maqwetha diadvokheiti diakhaontente le bahlakisi
153_0057 paseditseng botitjhere le kereiti eo
153_0061 ha a tshwanelwa ke ho
153_0062 e sa le elwa wa
153_0065 mines occupational diseases database samodd
153_0066 e ne e le phatswa
153_0068 ha di se di tshwailwe
153_0069 maholwanyane e be a kolokiswa
153_0072 best adapted screenplay
153_0073 poho ya mmofu e kgonya
153_0074 narrow gauge railway
153_0077 ha ke ne ke se
153_0078 swine flu e se ke
153_0079 molatswana o phallang lesodi o
153_0082 a dube thankga a be
153_0085 ho tswa thothokisong e botsi
153_0086 mario kart ds
153_0087 potlakile le ha re sa
153_0088 republican party united
153_0089 sa lakesense ya kgaso ya
153_0096 le ha ho lejwalo mekgwaena
153_0097 le ntjhotjho ke ba sebetsanang
153_0101 ho ikitlaetsa le ho ba
153_0103 entered world war
153_0104 national historic persons
153_0106 e sa ntsane e tswela
153_0108 a dti ka manane a
153_0109 share capital di tiisetswe ke
153_0111 le tsepameng nlheng ya ponelopele
153_0113 ho ba yuropa le bophirimela
153_0114 ho ikahela boitsebelo ba rarolle
153_0115 ha ho se ho senyehile
153_0117 lehokaleamanyi e e le lehokalekgethi
153_0118 eu member states
153_0121 institjhuteng dikhampaning dikoporasing le baleming
153_0122 states postal service
153_0131 a betilwe a bolailwe a
153_0132 a kgannang bahwebi ba rekisang
153_0134 saenetswe ke baamehi ba konterakeng
153_0142 eo e neng e le
153_0143 sa itsebe a be a
153_0144 eo ke e nyatsang ke
153_0145 supply chain management
153_0146 american military personnel
153_0148 te maak is nie kinder
153_0152 dipampitshaneng ho se ho tsamauwa
153_0159 tjhankaneng ke ha molebedi a
153_0161 a sa tshwaneng a hlokometseng
153_0162 tsetsela ke matetetso haufi le
153_0163 e bolokehileng ya ralewa le
153_0164 socialist federal republic
153_0170 ka fihlellang ho ka ya
153_0172 james clerk maxwell
153_0174 ya masetso e ikarolang ho
153_0176 initiative on priority skills acquisition
153_0177 ba lekalala fet re tshepahore
153_0178 tamiflu e ke ke ya
153_0179 ya matshediso re se re
153_0180 bilateral immunity agreement
153_0183 le le dikelang ha o
153_0184 ne a sa rate ho
153_0185 a qophella ho iphetetsa ho
153_0186 o ke ke wa utlwi
153_0188 ba saene phatlalatso ya botshepehi
153_0190 ha di hlaloswa ke sentebaleng
153_0191 le oo o ngotseng ka
153_0192 e lebiswe ho mohiriwa mokodi
153_0193 bo bashana ha ho na
153_0194 ya betlileng ya pentileng ya
153_0196 ke mohiri e moholohadi wa
153_0197 kgaolwa ke letlaka haufinyane ho
153_0198 hubble space telescope
153_0199 sebedisitse melao e hlokehang ya
153_0200 birth missing living
153_0203 ka phethahalo le ka ho
153_0204 ditjhankana re ntlafatse boalaodi ba
153_0205 leto di ngata ma tshwao
153_0206 a o susumeletsang ho se
153_0208 ho ya ka minerale e
153_0209 o saennwe ke moamehi ya
153_0210 leotong ho ya tswabokalakateng ho
153_0213 e apereng letlalo la nku
153_0215 ha ho buuwe ka ho
153_0218 vincent van gogh
153_0219 ka neville gawula a ho
153_0221 tseko ho realo mmatseko a
153_0228 sele le bohweng ba ntja
153_0229 emte se fpsajetsemg se emg
153_0230 o se a thenthetsa a
153_0231 ke qati o a lomisanwa
153_0233 ho ba e sa belaetseng
153_0237 le di trade unions ho
153_0239 ngodiswang di hlokwa ho lefella
153_0241 ya ba ya ntshehisa ke
153_0243 nnileng ba ba bokotsa ba
153_0244 ha e le marameng a
153_0246 tlela diaparo a di pata
153_0251 ka katse a se hlwella
153_0252 ba antseng tsweleng la daggakraal
153_0254 o sirelletsa o wa ka
153_0255 wee ha ba ha re
153_0256 corperative koporasi le nkuwe lentsweng
153_0258 ha a hlokomelwe le ka
153_0259 gnu general public
153_0261 vep e na le tjhadimo
153_0262 population division year
153_0263 le mathisa ho le maqhekwana
153_0264 domestic product gdp
153_0265 ya ba hwayahwaya ke ha
153_0267 le sa tshelweng ke nta
153_0268 ya ka pilir o ka
153_0269 le ho saenelwa ke mahlakore
153_0271 ba ithabetse ba ipinela dipina
153_0272 mofehelo ya mophetwa mohokare e
153_0273 football team based
153_0274 wa ka ke qati o
153_0276 ke ne ke se ke
153_0279 le e hlohleletsang le ho
153_0280 maekgepeta ka ha e lebisitswe
153_0283 a ka hlekefetswang ho ya
153_0285 ya lbs bekng eo a
153_0287 eastern catholic churches
153_0288 ra ikotla difuba ka ho
153_0289 le ka marung ke hosteleng
153_0290 ha o se o jele
153_0291 e ke ke ya sebeletsafela
153_0292 e le papadi e tswileng
153_0293 le ho utlwisisa boholo ba
153_0296 e sa le dinyane papisong
153_0297 ka kgeleke ya seqapi lefaufau
153_0298 a phatlalatse le ho qhalanya
153_0300 o mo hlale o inyalle
153_0301 batsetedi basibolli le bareki le
153_0302 ya tsamayang a jalajalana le
153_0303 o molato ka tlolo ya
153_0304 motshwayi sheba boiphihlelo ba mohlahlobuwa
153_0305 rammoloki o ne a ba
153_0306 c presidente a ka qhala
153_0308 leloko le lefang tonobankeng ho
153_0309 le ha a na le
153_0310 le ne le mo makaditse
153_0311 ha e ba e le
153_0312 modise ke se ke kopile
153_0317 ho hasanya le ho qhalanya
153_0318 ha mabokelle mabokelle o dutse
153_0319 a se ke a ja
153_0321 ku klux klan
153_0322 tseleng ebileng e se na
153_0323 ha ho tume dimelala ntshonyana
153_0324 lebelang hopaterola ha maponesa le
153_0325 old testament saints
153_0328 ya ho bolotsa ho ya
153_0329 le ya ho phoka bodumo
153_0330 ke ha marakana a se
153_0331 cathode ray tube
153_0332 molathothokiso temanathothokiso e bopang morumo
153_0333 ho inehella jwala le dithethefatsi
153_0334 le qetelo di hlahisitswe ka
153_0335 le moprimiri wa provinsi e
153_0336 ha ho ralwa le ha
153_0339 kgora e nne e ate
153_0341 e ne e ye e
153_0342 tshohanyetso o dumeletswe ketelo e
153_0347 ke se rometse ha maotwanafinyella
153_0348 central business district
153_0349 o re ditlhware di tshwareha
153_0350 diradiong le dithelevisheneng ho ne
153_0351 a supang qotso di a
153_0352 ho arabela kgoeletso ya ho
153_0354 united methodist church
153_0355 la labohlano a neheletswa buka
153_0357 wa sa management development intitution
153_0358 wa popota ngwanantlo ya thapelo
153_0359 e se e nyeunya diboko
153_0360 na le maikarabelo a ho
153_0362 ho omanngwa hokgarametswa ho rohakwa
153_0364 semolao le ho ao e
153_0365 koppen climate classification
153_0366 le ho ba sitisa ho
153_0367 ya ka kutlwisiso ya hao
153_0368 o ne a robile melala
153_0372 ding ho na le phetapheto
153_0378 kgudu ke sethoto le semumu
153_0380 o a o tsebatseba o
153_0384 le menontsha e na le
153_0386 ntlong ya thitelo ha mantshele
153_0387 tshiveda sendebele le siswati di
153_0388 kgotha le ho hlwekisa jarete
153_0390 science fiction writers
153_0395 ha ke no tswafa ho
153_0396 sebeditswe le ho lefuwa ka
153_0403 o e tatetseng e ka
153_0407 nations high commissioner
153_0409 ke ne ke sisinya ho
153_0411 le ya ho ipopa ngatana
153_0413 tjhaka le bomatowane ka leboya
153_0414 average annual rainfall
153_0417 dikonsarete ho ne ho se
153_0418 mahlakore a keneng konterakeng le
153_0421 native american tribes
153_0423 le mokopi eo ha ho
153_0424 leqheku ho tsofala le ratang
153_0425 ya mekete ke ne ke
153_0431 yellowstone national park
153_0432 ya tshitwe le ne le
153_0436 tswelopele ba re a dumellwe
153_0442 ya mahlaku ho ya ho
153_0449 sebo peho ka b o
153_0451 bra t o rekile senomaphodi
153_0452 ke ke sa o putsa
153_0454 ya o a se kgitla
153_0460 etswe le ditsebi di a
153_0462 main sequence stars
153_0463 e o tsieditse e o
153_0465 batsi a mesebetsi e ngolwang
153_0466 ba ho pholoha le ho
153_0468 boikamanyo e se e behang
153_0469 united states armed
153_0471 test ban treaty
153_0473 hloohongabaa re sihla a mo
153_0480 roba dipelo he moradia lebajwa
153_0481 ho kgohlela ho sa feleng
153_0486 ho nehwa tlotla e mo
153_0487 articles containing proofs
153_0491 o sa ye ngakeng o
153_0492 sa yang kerekeng e le
153_0495 o se ke wa ntuba
153_0496 la ho pepa le eteletswe
153_0497 mothendari a ka phumola ho
153_0498 e le ho utulla le
153_0499 a absa fnb nedbank a
153_0502 hlophiswe le ho hasanngwa ho
153_0503 ho ntjwetsa dife na jwale
153_0504 ho ingamangama ke le bule
153_0505 nkgolwe ha ke re ke
153_0508 le boyeneng a hlaheletse ka
153_0510 le tikoloho eo ba phelang
153_0511 se sebetswe ka le ho
153_0512 eo o e kolotwang ho
153_0513 ho fetisetswa ha tehpa e
153_0515 o bopilweng ka bokgabane le
153_0516 ke lehe ha o rwale
153_0518 emetsefeela ho re diphala di
153_0520 ditjaka a sa jese thweetsana
153_0521 ho ya ka moenjenere ya
153_0522 leihlo le fahlwa le shebile
153_0523 susumeditse borakgwebo ho bula dimmotjhara
153_0526 ha di eme di botse
153_0532 million metric tons
153_0533 e laeleditsweng e se e
153_0535 le le ka marung ke
153_0537 fala lekoko la pholo eo
153_0541 ha o re o ahlamisa
153_0543 e mong le e mong
153_0546 ho be le lesoba lebitleng
153_0547 million years old
153_0549 ho ke ke h a
153_0550 itshwarisa be ke ikwalle ho
153_0554 thotwana ho ngala ho thoba
153_0555 motjhine o ne o se
153_0556 e lokelwang ho tshohlwa ke
153_0560 ha o no tlohelwa ho
153_0561 maipato e ne e le
153_0562 beehetswe ka thokobakeng sa ho
153_0563 horizontal gene transfer
153_0568 ha re re re qhwaolla
153_0569 mario kart
153_0570 dikeledi ha ke re ke
153_0571 ho rora ha helikopotara e
153_0573 profeshenale wa bonono ba tshwanelhileng
153_0577 lokelang ho hlahiswa ke baithuti
153_0581 formal diplomatic relations
153_0582 carnegie mellon university
153_0583 e a behelwa ho o
153_0585 ne ke sa re ha
153_0590 ba bamemuwa makhing wa bahlomphehi
153_0593 kgutshwane bahlahlobi ba lekodisise hantle
153_0594 e ne e le polokwe
153_0595 a re phephisa boholong ba
153_0596 ka boikemelo e sa itshetleha
153_0597 ho se hlalosahobane bonneteng ha
153_0598 monga mobu a ka ya
153_0600 primitive recursive functions
153_0602 wa monnamoholo o shapuwe ho
153_0603 sa kgahlehe e le diqhwala
153_0604 a belaela ha atshwanetse ho
153_0606 academy award nominations
153_0607 day saint movement
153_0608 a tsielehile e le ka
153_0610 tlaleho ho ama le ho
153_0611 ne a se a roballetse
153_0612 ya eketseha ka ho bonahalang
153_0613 professional sports teams
153_0615 mekgatlo eo eseng ya mmuso
153_0616 ho se tsotellwe ho se
153_0617 podumo ya moemanotshi ya ba
153_0618 so fele tlhophollo ya ho
153_0619 ha o sa di hlokomele
153_0620 kgutlong sa mmila o kenang
153_0622 wa kgwedi le kgwedi o
153_0623 ka be o sa ka
153_0624 na samadula o ne a
153_0626 ho kenyeleditse le tekanyetso e
153_0627 lokolla le ho re ho
153_0628 di se o tshwenye o
153_0630 tshimolohong o tsebile e sa
153_0631 se kwetsweng ho ya ho
153_0632 los angeles area
153_0633 se lebelletsweng k h r
153_0637 ka lesaka ha ke ne
153_0638 o ne a tadimeha a
153_0639 le seatla ke nyenyeula eno
153_0641 eo a ka ba le
153_0642 e bulang metsotso e kenyelleditse
153_0644 se a mo hlekefeditse ka
153_0645 greek new testament
153_0646 pope john paul
153_0647 ha ho na moabi wa
153_0648 sa ntsebisa le ho ntsebisa
153_0649 a ka a re khuu
153_0650 ke re le ha ho
153_0652 o tle o tsebe ho
153_0653 ho nyefolwa ke ba bohadi
153_0655 sena e ne e le
154_0002 ya lehloyo ha e adumellwa
154_0003 botjheng ba ka ke ne
154_0004 e ha ella ng ya
154_0007 a ke ke a phela
154_0009 le tshusumetso e leeme e
154_0010 e thakgoha ke ha ho
154_0013 middle eastern countries
154_0016 stephen jay gould
154_0021 united states army
154_0027 e ikarabella mesebetsing e mengatanyana
154_0028 le divaerase dibakethiria le c
154_0030 ha ho se ho fanwe
154_0032 le menyenyetsi ya ho se
154_0033 le sekgukhuni o ne a
154_0035 national security agency
154_0037 lisp programming language
154_0045 ho alashwa e sa le
154_0048 mehoding eo o e abelang
154_0049 seeta bo utluwa ke monga
154_0050 ho na le e le
154_0054 ha ho thenthetswa le a
154_0058 le ho e kama wiki
154_0060 ya letoto la web smart
154_0062 ho qhoba bosiunyana bo le
154_0063 ba koro outse dinawa dilentils
154_0065 russian civil war
154_0068 na o ne a qetele
154_0074 se o iphetotse moleleri wa
154_0088 motshehafuma o a ipiletsa b
154_0094 wa e laolla ho website
154_0099 ya b sc b sc
154_0102 moratuwa ke lebohile ho menahane
154_0105 be e se e putlama
154_0108 gold mametja o na le
154_0109 la phoofo mafi yogathe di
154_0110 indebted poor countries
154_0116 george bernard shaw
154_0117 a se a nqhobella majwe
154_0119 hlorile o kgapong mo tlamolleng
154_0122 tlatlatjwe tshwengwe tsha biswe sokodiswe
154_0125 ba di antseng letsweleng ke
154_0126 national park service
154_0127 prudence e ne e le
154_0128 o ka be o di
154_0131 itshole ho se ho senyehile
154_0139 ho gems ka kotloloho le
154_0142 video game consoles
154_0145 qhe qhe qhe qhe qhe
154_0147 se tshepisitseng fifa le dibapadi
154_0151 leeme tshekamelo le kgethollo di
154_0152 nar aron le al ano
154_0155 ke ne ke tlile ho
154_0157 k ha o na ho
154_0158 lepatlelo la dithekiso le ho
154_0159 nuclear test ban
154_0160 monono ke mohodi ke mouwane
154_0167 cold war leaders
154_0171 ba ne ba siyana mekgahlelokabobedi
154_0173 lebanese civil war
154_0175 le seburu ha ho hlokahale
154_0176 ke ne ke sa re
154_0177 se o hlwele matsatsa ho
154_0178 academy award winning
154_0179 matloleng a dibenefiti matsatsing a
154_0181 hei hei o se ke
154_0183 le ha ho na le
154_0184 le ho tlaleha ho se
154_0186 motjeko wa puleng motjeko wa
154_0188 los angeles rams
154_0190 le ha e le dife
154_0192 le ha e ne e
154_0194 ne a sa kgarumemmakarabelo motsotsong
154_0195 e badileng qotsa polelwana eo
154_0196 o phatlalatsang le ho tsebahatsa
154_0198 e sa le a tswalwa
154_0200 eo o e fumaneng ho
154_0202 ke eo a emakalaneng ya
154_0206 global financial crisis
154_0209 moqoqo oo ho wona o
154_0211 mo tadimile ka leihlola kaine
154_0212 eo hothweng ke ya matarapane
154_0219 pheello di ka o hapisa
154_0221 tieho e tswala tahleho ho
154_0222 la diminerale le eneji lebatoweng
154_0225 haholo mopeletong le popong ya
154_0226 morongwe bo rotetsa le ho
154_0228 mo foseditsenge ie ha a
154_0230 mobishopo biala o ne a
154_0231 e a phethahatswa lnms ke
154_0234 ba ne ba tlile kwano
154_0235 e le ha a itlisitse
154_0236 ke sa re ha se
154_0238 ka mokudi ya kulelang lefu
154_0239 le ka ho emisa morusu
154_0240 ke ka hoo ke reng
154_0241 ho ya ka ditlhalosetso ke
154_0243 programming language
154_0246 ha nakokgolo eo kapeso e
154_0247 kutile le ha ho ne
154_0250 thomo e letlapahadi mohloka ho
154_0255 le thohako edictal citations le
154_0257 teyeng motohong ho dipompong dinomaphodi
154_0258 omisitsweng le dierekisi cauliflower le
154_0259 se sekgutshwane sa akha onte
154_0260 ho kgoneho e ka tiiswang
154_0262 bohole e be ho ka
154_0270 ya fihlileng a ntjwetsa sefahlamahlo
154_0271 tsejwang ka ante nuptial contract
154_0273 ya krosari e ka kgutlisetsa
154_0275 a ka ho o kgopisa
154_0277 le ka hlompho o o
154_0278 le dikgothaletso tsatsona di ka
154_0279 tlhodisano le ya boinotshi ho
154_0286 e a nkimela e mpolaisa
154_0288 gabriel gaofetoge wa botswania timbonile
154_0292 ka katleho esita le ho
154_0294 a dinakedi le a diphokojwe
154_0295 hip hop music
154_0297 ho thunthetswa ka ho theolelwa
154_0299 e ke ng ya sireletswa
154_0300 ba e butswela ba e
154_0303 ke tshwantshiso athe c ke
154_0309 hot chili peppers
154_0313 ka ha ho nahannwe temaneng
154_0316 united states census
154_0319 boiqapelo ya mefutafuta e batsi
154_0320 be e o jesetse kgwebeleng
154_0322 ho lefa lekgetho la nakwana
154_0324 best supporting actor
154_0326 ho ya ka baamohedi ba
154_0327 ya cbnrm e fapane le
154_0331 ho tsoseletsa selekane se setjha
154_0333 maqwetha diadvokheiti diakhaontente le bahlakisi
154_0338 c le d ka ho
154_0340 paseditseng botitjhere le kereiti eo
154_0344 ha a tshwanelwa ke ho
154_0345 e sa le elwa wa
154_0347 a re mofifi ke saletswe
154_0348 mines occupational diseases database samodd
154_0349 e ne e le phatswa
154_0351 ha di se di tshwailwe
154_0353 le ofisi ya motsamaisi wa
154_0355 best adapted screenplay
154_0356 poho ya mmofu e kgonya
154_0357 narrow gauge railway
154_0359 kansas city royals
154_0361 swine flu e se ke
154_0365 a dube thankga a be
154_0371 republican party united
154_0377 ha ho sa kgonwe ho
154_0380 le ntjhotjho ke ba sebetsanang
154_0387 national historic persons
154_0390 la tswekere le mahloko a
154_0391 a dti ka manane a
154_0392 share capital di tiisetswe ke
154_0394 le tsepameng nlheng ya ponelopele
154_0396 ho ba yuropa le bophirimela
154_0397 ho ikahela boitsebelo ba rarolle
154_0403 ne ho hlakile ho re
154_0404 institjhuteng dikhampaning dikoporasing le baleming
154_0405 states postal service
154_0406 ja ha o na ho
154_0407 ho a atleha ho fihlella
154_0425 eo e neng e le
154_0429 american military personnel
154_0431 te maak is nie kinder
154_0433 a qholotsang a na le
154_0435 dipampitshaneng ho se ho tsamauwa
154_0438 ke re o nkgitlile dibete
154_0443 mokopi eo ha ho hlokehe
154_0445 tsetsela ke matetetso haufi le
154_0446 e bolokehileng ya ralewa le
154_0448 e le e tlokomang ekgaphatsehang
154_0449 a o memele ho kenela
154_0450 ya roma ha mafefowane ke
154_0451 e ka qetellang e mo
154_0452 le ho bakang ho kgathatseha
154_0453 ka fihlellang ho ka ya
154_0454 e ne e lemonyollane o
154_0455 james clerk maxwell
154_0457 ya masetso e ikarolang ho
154_0459 initiative on priority skills acquisition
154_0461 tamiflu e ke ke ya
154_0463 bilateral immunity agreement
154_0468 a qophella ho iphetetsa ho
154_0469 o ke ke wa utlwi
154_0475 e lebiswe ho mohiriwa mokodi
154_0477 ya betlileng ya pentileng ya
154_0479 ke mohiri e moholohadi wa
154_0483 birth missing living
154_0486 ka phethahalo le ka ho
154_0489 a o susumeletsang ho se
154_0501 vincent van gogh
154_0502 ka neville gawula a ho
154_0504 tseko ho realo mmatseko a
154_0506 ha a na ho se
154_0509 ha e tadingwe e le
154_0510 takadimane ba ba ba nkana
154_0512 emte se fpsajetsemg se emg
154_0513 o se a thenthetsa a
154_0514 ke qati o a lomisanwa
154_0528 tlela diaparo a di pata
154_0532 ho theohela ha e le
154_0538 corperative koporasi le nkuwe lentsweng
154_0541 gnu general public
154_0542 walt disney company
154_0543 vep e na le tjhadimo
154_0544 population division year
154_0545 le mathisa ho le maqhekwana
154_0546 domestic product gdp
154_0550 ya ka pilir o ka
154_0553 ba ithabetse ba ipinela dipina
154_0555 football team based
154_0560 o se ke wa hlophisa
154_0561 le e hlohleletsang le ho
154_0569 eastern catholic churches
154_0570 ra ikotla difuba ka ho
154_0575 le ho utlwisisa boholo ba
154_0577 ntshetse dikgoho a mo phehele
154_0578 e sa le dinyane papisong
154_0579 ka kgeleke ya seqapi lefaufau
154_0582 o mo hlale o inyalle
154_0588 c presidente a ka qhala
154_0590 leloko le lefang tonobankeng ho
154_0595 sethatho ho ya ho se
154_0598 ke hierarchy of needs ya
154_0599 l cuin abbr
154_0601 hoba ha ke re ke
154_0605 dibakiso e ne e le
154_0607 na ha o sa mo
154_0608 a di shebe e be
154_0609 ho latele tumediso monghadi e
154_0611 lejwe hono ha ho mo
154_0612 tshetso ya setekgeniki le ya
154_0615 o ka ba le sethunya
154_0616 v ha a ka a
154_0618 letshwele ha o tswelapele ho
154_0622 british science fiction
154_0624 a be a itsamaele ho
154_0629 middle east peace
154_0638 e be o pepesa tjhate
154_0641 le ha a o ka
154_0643 ba tjheseletswa ka matlung ba
154_0644 ka ha ho ya ka
154_0648 a sehetswe ho ya ka
154_0649 a kenetswe ke mokgwawa holora
154_0651 prime minister margaret
154_0653 dipalangwang ho kopanyelleditswe le diteishene
154_0654 ho ka hodisa le ho
154_0660 ke bo menomasweu ba o
154_0663 a sosobantse difahleho ke ho
154_0664 ngolwa ka ho hlaha lehlakoreng
154_0665 e kgephola tjhabana sa rantsho
154_0668 royal swedish academy
154_0673 ha re tu ka ho
154_0677 a qabana le mohanuwa ya
154_0678 lesweu mehoo ya dithotsela lemoya
154_0679 leshodu ke le tshwerweng ha
154_0681 eo o kileng wa e
154_0686 ho ya ka supina ho
154_0689 including population density
154_0690 a totoba ho ikisa ntlwaneng
154_0692 a ba le temalo bokong
154_0693 ejamethinya o ne a sa
154_0700 pope innocent
154_0702 federal reserve bank
154_0705 a b c ho belaela
154_0706 ha teboho a ne a
154_0707 american jewish people
154_0710 ke mo tadime le ho
154_0713 eo hothweng ke hopahete ha
154_0715 wa boithaopi o bontshitsweng ke
154_0716 ya ho bopa le ho
154_0717 se ke wa qalella ho
154_0718 e ananetsweng e na le
154_0719 needed date august
154_0723 following world war
154_0727 ya mdnb le ho rala
154_0729 menngweng ka boithaopo ho etella
154_0736 bokudi ka ho fapafapana matoto
154_0737 free software foundation
154_0740 ho division liquor product stellenbosch
154_0744 diphula le diphulana dinoka le
154_0751 ho mawatle o o hloloheletswe
154_0754 tshila e se e bokellane
154_0759 hlompha mamela ka tshetshefo ka
154_0760 le ke le atlehe v
154_0761 ke e nyatsang ke ya
154_0762 mope leto di ngata ma
155_0001 ho di developer le ho
155_0003 free software movement
155_0005 e ba ha e be
155_0007 ba ke ba mo rute
155_0013 menu e phuthollang dropdown ya
155_0015 ho na le fifi sa
155_0019 le boikokobetso o ne a
155_0021 habobebe ka ho tobetsa selefounung
155_0023 ne e le ba moradi
155_0026 la ka ke dudu bukaneng
155_0027 ho ya le ho kgiutla
155_0029 game boy color
155_0035 finyellwe le ho qhalanngwa ha
155_0038 hahelwa servcon ke thubelisha homes
155_0044 early christian church
155_0045 ke itse setsweng ke hole
155_0047 ba se ba iketseditse pokelletso
155_0048 o ne o ikopa ho
155_0050 ba ripitla wadene le mabotho
155_0051 arthur conan doyle
155_0052 lebekere la oli le borotho
155_0053 indian classical music
155_0054 buisana ka wena moetapele wa
155_0056 association football clubs
155_0057 b abela ho phethwa ha
155_0058 ho hang kaha e lekotswe
155_0061 di re tsuuu a tsitsinya
155_0063 o se o ngodisitswe lenaneong
155_0066 emperor sh wa
155_0068 nobel prize winner
155_0073 he a ba a thunya
155_0077 a e tidinya ha engwa
155_0078 hlwaya le ho fihlela moelelo
155_0080 e le ho rothisa keledi
155_0085 tsohile e sa le ka
155_0093 europe music awards
155_0095 tsitlallela ho emela boikemisetso ba
155_0101 ka makopanyi masupi le mahokedi
155_0102 polelong ya a le ya
155_0104 ke o rata ke tiile
155_0105 be a se a mo
155_0108 chester williams o ne a
155_0109 supreme allied commander
155_0111 tefello ka ho toba akhaonteng
155_0115 le thelefounung ho di e
155_0117 ho kgwehlang e ne e
155_0118 ke ba hodisitsweng ka dikgalemelo
155_0119 pope pius
155_0121 tobaneng le ho ntshwa ha
155_0124 aterese le nomoro ya mohala
155_0127 ya ka a ka re
155_0128 o fihla ka be ke
155_0130 second punic war
155_0131 socialist workers party
155_0132 eo le mmolokileng selemong se
155_0133 ka ho una ho tseteleng
155_0134 army air forces
155_0135 international astronomical union
155_0136 ha difensetere di tjhwatleha le
155_0138 commedia dell arte
155_0139 moeti ya ikemetseng wa ditjhankane
155_0140 le kgothaletso ya boikgwantlello le
155_0144 le lempetje ha ore o
155_0145 los angeles dodgers
155_0150 fetotsweng lefutso le v melawaneng
155_0153 ya sethatho ho iswa ho
155_0157 a be a yo re
155_0158 e se e kgelekgetha holele
155_0159 morunyaneng a ba a kgatholoha
155_0160 second world war
155_0161 lepolesa le tsh wanetse ho
155_0162 cc e ka hlodisana le
155_0163 tjhoba le se le letse
155_0164 oo mokobobo o na le
155_0165 calluses ho di vocal cord
155_0170 ke dule ke kgwabitlwa ke
155_0171 a e i o u
155_0172 ha e le mo o
155_0174 ho kgotlalletsa ba sa bapaleng
155_0175 le ka tjheletevv raboditse o
155_0176 bapisa maelana a ho kholomo
155_0177 boemedi ao ho nehelanweng ka
155_0178 he di ne di ye
155_0179 motsotuwa ho se ho se
155_0182 anetse ho ba re hedi
155_0183 ho atolosa le ho matlafatsa
155_0187 e music flat
155_0191 ho ba eo rejistra a
155_0192 no tswafa ho le tshwarisa
155_0193 mo kgothatse le ho mo
155_0196 kgotjwane le sekoto mmo ho
155_0197 o ne o hirile bahiruwa
155_0199 ya authority to apply e
155_0200 ya boimana ba ba le
155_0201 metjhini ya othomatiki e sa
155_0203 a kgonneng ho inyalanya le
155_0204 mohlang oo kolobe ha e
155_0210 ne e le senokwane se
155_0212 old catholic church
155_0213 turkish army occupied
155_0214 o sebete sa ho beha
155_0216 ha e sotlwe ke ho
155_0217 ikarabellang diphuputsong ntshetsopeleng le ho
155_0218 bidibidika a be a yo
155_0219 graphical user interfaces
155_0220 indus valley civilization
155_0222 best foreign language
155_0224 ha ho se ho ho
155_0225 voutu e eketsang voutu eo
155_0226 dikwankwetla bahale ba furallwa kebasadi
155_0228 american civil liberties
155_0230 ya faele ya sars eo
155_0231 menyako e sa notlelwang hosane
155_0232 pejana ho tswa ho nac
155_0233 ho phethahatswa ha phahamiso ya
155_0235 ho ya ka ka kglofalo
155_0236 mohlwekisi wa dikantoro molemi wa
155_0237 se itshwenye le ho itshwenya
155_0238 states marine corps
155_0239 ho buseletsa mo kgwatshebetso wa
155_0241 tadimang e le a behang
155_0242 arohaneng eo o ka e
155_0243 le mo imela le ho
155_0245 buwa le boraditaba meqoqo e
155_0248 o se ke wa itlotsa
155_0249 nobel prize winners
155_0250 ho se ho apolwa ho
155_0251 ya trc e ke ke
155_0252 oo wa ho iswa ha
155_0253 ba kgonne ho itokolla bafutuheding
155_0254 ka ho re salla le
155_0255 senyesemane le ya afrikanse ha
155_0256 se re a tenehe ho
155_0257 ya ka jariswang sekodi sa
155_0258 le a hoa ha a
155_0259 le ho tshwaratshwara ho sa
155_0260 mahlaku ho ya ho ya
155_0261 le boiphihlello cv a ko
155_0262 ya itefela wa eletswa ke
155_0264 ya thupa e tlotsitsweng ka
155_0265 di ne di bolokilwe ho
155_0266 masimo a senngwa ho ya
155_0267 ka ha e sa le
155_0268 mo furalletseng ha a sa
155_0269 mabone a re fi ha
155_0270 mophetwa enwa o ne a
155_0272 le lereko ba makaditswe ke
155_0274 ka ha ho bontshitswe kabong
155_0276 diminerale le eneji le la
155_0277 a mpone ke le koko
155_0278 d ya itlhahisang ka boqhekanyetsi
155_0283 a iphile dimenyane ho ya
155_0284 iketsa ramohlongwana a epa pitso
155_0286 british television series
155_0290 mopeleto le tshebedi so e
155_0291 teboho e be hempe e
155_0293 league baseball teams
155_0295 southern united states
155_0296 ekakgona a se tlohellwe a
155_0297 ramaqiti e ne e le
155_0298 le eketsehileng ka dintl ha
155_0299 e le ho ipapisa le
155_0300 e tshehetsan g di bopil
155_0301 ne o le mongata e
155_0304 ke se ke ile ka
155_0305 larile a latetse ba phirimetsweng
155_0306 microwave radio relay
155_0308 o a iphetela ka ba
155_0311 ha di se di oroha
155_0312 mapolanka e sa blelwang kaekae
155_0313 ya health risk manager ka
155_0315 oo ka ha ka le
155_0316 o ne a nqoba ka
155_0317 mokgopi o qhalana raditaba le
155_0318 a patwang ke ne ke
155_0319 ke ka tatela boqheku ke
155_0320 a ne a betilwe a
155_0321 high blood pressure
155_0323 kgama a arohane ie dibakiso
155_0325 ke e kgahlisang e kgolwehang
155_0327 a haedi ne di le
155_0328 susumetse le ba atelete ba
155_0329 ho hlohloreha ha modula le
155_0330 ka ngollano le yunivesithi ya
155_0331 monaco grand prix
155_0333 ya bolebedi ha le apare
155_0335 ntshosa ke ne ke le
155_0336 bokgoning nneteng le tlhokong ya
155_0341 phousetara e e hohelang e
155_0342 sa merero ya dipatlisiso ya
155_0344 ao ho lekwang ho a
155_0348 bosiyong ba lefitori ha se
155_0350 major league baseball
155_0351 kahobotjha le ntshetspele le ho
155_0353 eighty years war
155_0354 na le ba sa ingodisetseng
155_0357 ke o tsholele mabinabine a
155_0359 tshabeha e sa le mafahla
155_0362 ha dipeeletso le ho kwalwa
155_0363 make extensive use
155_0364 international financial institutions
155_0365 ba bakae ba amehang tsamaisong
155_0366 ne a na le leqeba
155_0368 ke re le ha e
155_0369 le eskom holdings eskom e
155_0370 le ho eketseha ka ho
155_0371 ne o e so tlalehe
155_0372 national football conference
155_0373 knights grand cross
155_0374 bo se bo bokeletswe le
155_0375 re ka ra o qhallang
155_0376 mahlahahlaha ha a behwemotjha wa
155_0377 ka marihengafetileng homme ba ne
155_0378 ho hatella ho latelwa ha
155_0379 sa pataleng kgwebong e fe
155_0380 declared martial law
155_0381 home run record
155_0382 matshwakatha e ne e le
155_0384 molatsa tseno ka ha di
155_0386 le ho ba tlhokomelong ya
155_0387 ya ho di fumantshwa tshedimosetso
155_0388 a phedisano a shebane le
155_0389 roman catholic church
155_0390 ka ho o kgopisa ka
155_0391 australian labor party
155_0392 ha ho ya hlotseng e
155_0393 itlhahisang ka boqhekanyetsi e le
155_0395 di butseng di ne di
155_0396 feletseng sa ho hlokahala se
155_0397 le le borethe letsheare lohle
155_0399 o di botsitsweng tlhaka ya
155_0400 ke kgoeletso e sebedisetswang ho
155_0401 president george
155_0403 e talana e pepileng lebidi
155_0406 le neheletsano e momahaneng e
155_0408 ao diketsahalo di etsahetseng ka
155_0409 o honothele ka ha ke
155_0410 ne e sa hlophiseha e
155_0411 ya sa rutehang ya bolotseng
155_0412 e be ha ba bolle
155_0413 prithvi narayan shah
155_0414 ja le ho di ja
155_0418 ya ayodine e qetwa ke
155_0419 o ne o re re
155_0420 na le bomadimabe bo ka
155_0421 francisco bay area
155_0422 ya badimong a patwa ka
155_0423 north germanic languages
155_0424 dipitsa di dulang di pjatla
155_0426 ba ne ba emeletse thokwana
155_0427 letshwao la ho intsha sehlabelo
155_0428 ho fuputsa le ho lokisetsa
155_0431 phiri e se e jele
155_0432 ka supina ho bitswa le
155_0435 ka ho hweba ka thobalano
155_0437 ke ne ke o tshepile
155_0438 ka moaparo o lahlilemaharaswanyana ane
155_0439 ke tshwenyehile o se ke
155_0440 re tlamehile re kgannelwa ke
155_0441 kgefutso ye metsotswana e se
155_0442 united states court
155_0443 ne a se a phunkgane
155_0445 na ho na le basabetsi
155_0446 la mo re he a
155_0447 federal reserve banks
155_0449 ho ba kgetholla le ho
155_0452 a be a di kome
155_0455 le hojane ka mathoko ho
155_0457 civil war broke
155_0458 e phethahale ho ya ka
155_0459 ne o ke ke wa
155_0460 o ne a kwalletswe bosiung
155_0461 ya semetletsahadi ya ho kgethammabotle
155_0462 e le nnotshi ha se
155_0463 eo e kgutshwanyane o thehile
155_0464 ke boelane le aubuti thabang
155_0466 i nkilwe maoka le ho
155_0470 thaha ba phukalle sa ntsu
155_0472 booker t big show cena
155_0476 le tlhakiso ya opareitara ya
155_0477 ka melato eo ke sa
155_0478 sireletsehileng ha di phatlalatswe ho
155_0479 ba se ke ba iphapanya
155_0480 e ithutwe e be e
155_0481 tshekamelo le kgethollo di hlahellang
155_0482 toka e kgahlanong le botlokotsebe
155_0483 le nokaena eo ke e
155_0486 ntshwabiseng a arabella ka ho
155_0487 central american countries
155_0488 president john
155_0489 ke ha e le ho
155_0490 ke se iphumane ke llela
155_0492 e be mmohi o ba
155_0493 ditabatv e nkilenako eo re
155_0494 ho so be le ba
155_0495 re ne be re se
155_0497 el nino e e fihlelle
155_0498 e netefaditsweng ya bukana ya
155_0499 ke fetwa ke lift ka
155_0503 blessed virgin mary
155_0504 o ne a sa utlwisise
155_0505 waho re tataisa ha re
155_0507 o ne a lepolosa lentswe
155_0508 rarollla diteihiso le ho ntsetsa
155_0509 so lokele kwetliso ya batsamaisi
155_0510 se setala ha e nnqwe
155_0511 e ka emiswa ya hlakolwa
155_0512 ancient greek philosophers
155_0514 ka re sethothokisi se ngotse
155_0515 empire state building
155_0518 kgutlelang mahae e ne e
155_0519 ho qoba le ho tlola
155_0520 ka kenwa ke lefuba ho
155_0521 ya ho laola le ho
155_0522 a makaletse seqhwalasena se pudufetseng
155_0524 ho sejura le le se
155_0525 dipehelano ha e ba di
155_0528 se ke itheketse motjhini wa
155_0530 ho na le ya ho
155_0531 a se susumetswe ke ekng
155_0535 salt lake city
155_0536 le seburu di qadileng ka
155_0537 nyora le ntshotla le ntlhokisa
155_0538 a ke ke a angwa
155_0540 ba e hlwekileng e bileng
155_0542 lebenkeleng la fenetjhara o teane
155_0543 le bonkgono le bontatemoholo a
155_0544 a supileng ha a kopanngwa
155_0546 e hlomamisitse di nlb ho
155_0548 e potetseng e le ho
155_0550 ke a di utlwa tseo
155_0552 hanelwa ka dipalangwang le dikgokahanyo
155_0553 ya thontshweng a nehelaneng ka
155_0555 ke ne ke le sefofu
155_0557 wa sireletseha ha ho ka
155_0560 red sea coast
155_0561 phahletse ra ba ra mo
155_0562 ya profensi ya transvaal e
155_0563 re if diplomacy fails then
155_0564 tsengata di a phutholoha ha
155_0565 le dintlha tse e tshehetsang
155_0566 ba kgahlenyetswa ke monko o
155_0567 matsetsela v o ne a
155_0568 le fokang le ipopile le
155_0569 ne e ye e re
155_0571 ya ho transferwa ha sekepebakeng
155_0572 e le ho kgelekgetheha ha
155_0573 ho na le ho kgaokgaoha
155_0574 tekenyana ho rekwe poonee dithollo
155_0576 le ho ngongoreha ho bebofatsa
155_0577 a fihlang ho a mahlano
155_0578 ya matsatsi a mahlano a
155_0580 ke hlole meleko e ntobileng
155_0582 bo senolo mefehelo ya mophethwa
155_0583 a furalla a tadima hosele
155_0584 ho se ho le leratanyana
155_0585 american civil war
155_0589 maemong a tlwaelehileng a dipuisano
155_0590 ha o a phuthuloha le
155_0591 moqo suwa ha ho na
155_0592 southwestern united states
155_0593 o tiisitse ha o re
155_0595 dihuweng o hlotswe o a
155_0597 ba se ba tsheheditse lephako
155_0599 dikhompeuta theepa ya odiyo theepa
155_0600 e ne e le koloi
155_0601 mohloding le ha e le
155_0602 ka nate e sa tiyang
155_0603 r j r masiea e
155_0604 ba ne ba fetotswe ke
155_0605 northeastern united states
155_0606 di a dumellana mo mahano
155_0607 le ha e le lesobanyana
155_0608 rejisetara le sehalo di sebedisitswe
155_0609 president theodore roosevelt
155_0610 a sa tahwa o ne
155_0613 balekane ba o r tambo
155_0614 kenang toropong e ne e
155_0615 mathakang ba rongwa ba hlatswakang
155_0616 ya ka e duma ditshepe
155_0617 dithupello le ho tlatsetsa ditataisong
155_0618 le ho qadisa diprojeke ke
155_0621 a sa tsebenthoeo a e
155_0623 oo ho wona o hlahisang
155_0624 e sootho e mabanta a
155_0625 ngola ka mongolo o makgethe
155_0627 a ho kholomo a le
155_0628 ha o le manganganyanatjena ke
155_0630 british east india
155_0631 a ho qeka le ho
155_0633 ha bofutsana bo e ja
155_0634 mo hauhela a re ho
155_0635 electron degeneracy pressure
155_0638 phetwa e be mmohi o
155_0643 wa ikahela ka ho sa
155_0644 rugby union team
155_0645 a o fe resiti e
155_0647 le dikopanong le dipitsong le
155_0648 ke tshepo ho aubuti thabang
155_0649 le ho tsoha o tsohile
155_0652 e ba ho na le
155_0655 o ahlame o mo tonetse
155_0657 ha a ka a arabela
155_0660 saennweng le ho tempuwa ke
155_0662 tswelapele ho tobana le dipephetso
155_0665 ke ne ke ipona ke
155_0666 internet service provider
155_0668 le ananela botebong ba maikut
155_0669 la poraevete ke na dipuisanong
155_0670 hong ho dumella mmadi ho
155_0671 o e na le letshollo
155_0673 weleng mekgeng e hlalositsweng ka
155_0674 dikoduwa le matsholo a ho
155_0676 national baseball hall
155_0678 puseletso e se kenyel letsang
155_0679 hule pay as you earn
155_0680 leke ho mo nyokola ha
155_0681 ho se ho se na
155_0683 ka bomadimabe khampane ya boabiele
155_0684 a be a mo kgothaletse
155_0687 be le tsamaisano le bili
155_0690 di ka be di thibetswe
155_0691 ho ka ama sabsidi ya
155_0692 ho balehaempa ba mo lelekisa
155_0693 memorial park cemetery
155_0694 botoro le tjhisi mabejana difeme
156_0001 temg tpp amemg bpmmete ba
156_0002 ba ke ke ba ho
156_0003 ntano mo tjhentjhela dikobo le
156_0005 tenese krikete kolofo ditebele ditantshe
156_0007 tswele ka ntlo ba yo
156_0012 ancient near east
156_0014 american psychological association
156_0015 di e rorisa a ke
156_0018 ba ka ha re majalefa
156_0019 botlolo ya boranti le ho
156_0021 e le sekowa sa kelello
156_0024 e le la leteterre ho
156_0026 tsoke letjhoba a akgotse lengetse
156_0027 ba tshwanelehang ho ba khanseleng
156_0028 ne a ye a bitswe
156_0029 raditaba le tjhotjholosa ba ne
156_0034 eo o ka fetisetswang ho
156_0035 ho e hlatswa le ho
156_0036 ha e le mariha ho
156_0037 ba motlolamolao ho buseletsa mo
156_0038 ho lekanya boleng ba ho
156_0039 kgannwang ke stjhaba e le
156_0041 ha e ka ha ho
156_0042 le ho iphumanela dikarabo ka
156_0044 ka fekse di ke ke
156_0045 metlae yabatho ba ekang ba
156_0047 e le mmolai ho ka
156_0048 se ka bokellwa le ho
156_0049 ho ke ke ha tellwa
156_0052 national film registry
156_0053 tlameho ya boramosebetsi ya ho
156_0054 barui ka ha e ba
156_0055 ma israel le ma palestina
156_0056 islamic conference oic
156_0058 ba a phema ba ye
156_0059 leboha kgutlana la ka ramasedi
156_0060 o ne a sa ikutlwe
156_0061 johns hopkins university
156_0064 taolo ya mehlodi ya tlhaho
156_0065 rock music groups
156_0066 e etelang masea a sa
156_0067 le letsho letebele o ne
156_0068 ho ya hoile a keketehisa
156_0069 o se ne a ye
156_0070 aids ke ba pepesehileng ho
156_0072 hlephe o ne a itswetse
156_0073 ho le dintwa vmme e
156_0075 e tobisitsweng ho phofu ke
156_0076 ho tlwaetsa le ho rupela
156_0078 ho hlekelwa sebae ka ho
156_0079 bapile ba ntshana se inong
156_0080 re ne re o tshepile
156_0081 ke bra t tshepiso a
156_0082 academy award winners
156_0083 ka bui sana le mec
156_0085 ho ba eo ho sebetswang
156_0086 le fatere ba ka mmakalla
156_0087 le mosuwetsana ba ka lekanyang
156_0088 ke ha bohlokw a ho
156_0089 moshanyana ha di jewe paleng
156_0092 internet protocol suite
156_0093 e hlileng e o hwayahwayang
156_0094 golden globe winners
156_0095 monetary fund imf
156_0099 kentsweng lebitleng la ramoroko le
156_0100 uk singles chart
156_0101 king charles
156_0102 ho sebeletsa ho kopanngwa ha
156_0103 o potapotileng ha ba sa
156_0105 radiphaphatha a mo re qhau
156_0107 open source software
156_0108 bo oonaempa a tsamaellanang le
156_0109 ho na le mehato ya
156_0110 a hlomamisa dikomiti ho ya
156_0112 e khutshwanyanehokarolo ya b o
156_0114 eo e ka tlalehwa embasing
156_0115 ene e le ho sireletswa
156_0116 ba sebetsanang le bohlahlobi le
156_0117 ho thata ho dumela tsena
156_0119 current prime minister
156_0120 o ne o ka satalatsa
156_0122 clean air act
156_0126 ho le ba mo mametseng
156_0128 united states marine
156_0131 eo o se a rapaletse
156_0133 mashome a mararo ka mora
156_0137 se ke a hlekefetsa mmeleng
156_0139 king james bible
156_0140 ka thato ya tshwene terene
156_0141 e ne e le dilalome
156_0143 new york state
156_0144 services hokenyelletswa le ba beileng
156_0145 ka tlelika konopong ya ho
156_0146 sa lleng o shwela tharing
156_0147 e ne e le moadvokate
156_0148 ha a kgathale o phofaka
156_0149 a lewatle a le letswai
156_0150 ya ateraetisi ho na le
156_0151 ha le ne le le
156_0152 e lemonyollane o tshajwang lesakeng
156_0153 hadikelang ho di ja o
156_0154 e ne e le sebaka
156_0155 dead sea scrolls
156_0160 ba lahlane mohanuwa a mo
156_0161 a ne a le unibesiting
156_0162 le bahokahanyi mohatong wa porofense
156_0166 ne a apara hempe e
156_0167 a ba a tsitsipana a
156_0168 idp di idp di na
156_0169 e itshetlehileng thothokisong e hlahisitsweng
156_0170 nobel peace prize
156_0171 e mo thusitse ho fa
156_0172 moma katibanyana ya kepa e
156_0173 ye e mmalehele e sa
156_0175 se rutwang se be se
156_0176 ya dipolotiki le ikonomi ya
156_0177 moporesidente wa mehleng wa anc
156_0178 advocate le ha ho le
156_0179 ho na le sete ya
156_0180 o nyallane le se tlalehwang
156_0182 o tlisitse ho tella kwano
156_0183 ha o a kgotsofatswa ke
156_0184 a kwaholla lesela le kwahetseng
156_0185 american free trade
156_0186 baheso ha re boeleng re
156_0189 re le ha ho ka
156_0190 e fetileng le ba futsanehileng
156_0191 melala e tamolletswe sa kokolofitwe
156_0192 a ithapela a mo fa
156_0193 boela ba hasana ka ditsheho
156_0194 o lemao le ntlhapedi o
156_0195 cite book title
156_0196 tokoloho eo a e labalabelang
156_0197 ne e se e ie
156_0198 ka e amohetswe ho sasa
156_0199 ya setatemente sa kharikhulamo ya
156_0200 mo ngolle posekarete o mo
156_0201 e sebediswe selakgeng ha ke
156_0202 ya papiso le ya boqapi
156_0204 ka ngolwa ka ho hlaha
156_0205 ya boikamanyo e se e
156_0206 hommeng he leshodu ke le
156_0207 ka ha di ke ke
156_0210 ba ka ka hahaba ka
156_0211 itsehlooho eo e ipatlelalenaka la
156_0212 ke ne ke sa bolokeha
156_0213 wa ditlhophiso le ha e
156_0214 emmy award winners
156_0217 a masweu a pholiesetere a
156_0218 ka dithetefatsi theiso ya dithunya
156_0219 mabitsoao o be o a
156_0220 a itlamme ka forosekoto ya
156_0221 le ho nyefola se sa
156_0223 a re o batlile a
156_0224 se ke wa latella ho
156_0225 la toka le ntshetsopele ya
156_0226 apere nkwe ha e le
156_0227 sa busetswang madulong eo ho
156_0228 o tshepisa ho ba bitsetsa
156_0229 pitikisana ba ba ba ya
156_0230 provider dsp medipost ha o
156_0231 o phethaphetha phoso e le
156_0232 sir arthur conan
156_0233 a b c d ho
156_0234 rarolohe bo rarana le ho
156_0235 ya sapoto o na le
156_0236 a se a hlotse e
156_0237 ba hlokahetseng ba a lebalwa
156_0238 ka nepahalo le ka ho
156_0239 ha le ne le ntshana
156_0240 ba ke ba itekole ba
156_0244 e arohaneng eo o ka
156_0245 ho tsohwaka matjekemme ho uwemotseng
156_0246 le phetohonyana e makamakatsang eo
156_0247 a se ke a hatikela
156_0248 ka re kgohlano e thehilwe
156_0250 ba ke ke ba dumelahore
156_0251 amanang le projeke setshwantsho karolwana
156_0252 ba le tshenyo e bakwang
156_0254 ha ke sa notlela o
156_0255 ke ke a mamella ho
156_0256 a ka ha ho na
156_0257 le dpsa e le ho
156_0258 ne ba hlohlelletswa ke boralehlatsa
156_0259 mahala e ka thabelwang ke
156_0260 makgotlaneng e ne e le
156_0261 a nkga a re phu
156_0262 iphoqa o ithetsa ka tsiemokopu
156_0263 mokoko o nwele mahe ha
156_0264 ya learnership le ha ho
156_0265 eo e sa rarollwe o
156_0267 ka judase ha a ne
156_0269 be ka mabokose a masweu
156_0271 ho se mamelwe le ha
156_0272 matlonga r d p ho
156_0273 a ba a re ke
156_0274 tao te ching
156_0275 tlabidika a thwene a tsamaye
156_0277 mehananeng hararo ya ho ka
156_0278 le sephoko a kgelekenya ho
156_0279 se sebediswang e be se
156_0281 rona wa ho keteka lemo
156_0282 letsatsi le sebaka di hlake
156_0283 raporoto ya ho qetela ya
156_0284 ha di hlahisitswe ho tj
156_0285 ya mareo le mererong ya
156_0286 ha e le leruo la
156_0287 ho na le tlhokeho ya
156_0288 ho na le metheo e
156_0289 e se e re putla
156_0292 le meelelong e fapafapaneng ka
156_0293 le ho ja ho le
156_0294 e e fitisetsa moemeding wa
156_0296 indian prime minister
156_0297 a ba tlisetsa dikgathatso ka
156_0298 o tiang ho tshwarelwa ho
156_0299 makana o nyarela ka fesetere
156_0300 a utlwahala e kgutshwane le
156_0302 ka ditjhipse ho e na
156_0303 ba le dvt ba ka
156_0304 nlbs ha e a botjwa
156_0305 ha o kgase o lemong
156_0306 se sekasekwa le ho phuthollwa
156_0308 ya o kgothatsang ha o
156_0309 hlotse mmampholwane ha a ne
156_0311 a re o mo elelliswa
156_0312 ao re a futsang ho
156_0313 le ho kgemiswa le dinako
156_0314 ha re rekeng ditekete ka
156_0315 phopholetsaka ka mokgwanyana o hlokangboitlhompho
156_0316 e kasehloohong le matsemeng a
156_0317 mo ho jewang hlenhlenyane ho
156_0318 dibukana ha di na ho
156_0319 sediba se lebelwe e ne
156_0320 tjheswa ke lehe ha o
156_0321 ba hlolwang ke ho itshwara
156_0322 na le kgalala e itlhommeng
156_0323 d honneur recipients
156_0324 ho na le pallo e
156_0325 le ho hlahlobisisa kgahlamelo e
156_0326 o mo furalletse ka ha
156_0327 e reketlisa lehodimo ya ba
156_0328 ka ha a se a
156_0330 ne e mo arohantse le
156_0332 bokatse o ne a ba
156_0333 e ne e mo hlokisa
156_0334 ka ho di kopanya le
156_0335 ba ka ha o nkgothaletsa
156_0336 a se a bile a
156_0337 e le yenafeela eo re
156_0338 bo itseng ba ho akaretsa
156_0339 ya ka temana ya a
156_0340 ka mpa ka mo tshwarela
156_0341 ba h itaola ha ba
156_0342 ha o futhumetse o le
156_0343 a dikgoka le ho kwena
156_0344 ha se a phutholoha ho
156_0345 ho ne ho sa re
156_0346 e ne e le e
156_0348 e motle ditjhabeng lehlanahlana ke
156_0349 eo ke sa e tsebeng
156_0350 le bohany etsi di ka
156_0351 a hlophisitswe ka ho ya
156_0353 ba ka ke tjho le
156_0354 busetswang madulong eo ho tjhona
156_0356 se le motshela ka ditlatse
156_0357 e sa le dinyane dikgolo
156_0358 le ho nyonyehang le ho
156_0359 le ne le sa re
156_0360 ke ya ba mothusi wa
156_0362 tshoswe tlatlatjwe tshwengwe tsha biswe
156_0363 ho se ho mekamekanwe le
156_0364 nyumonia ho e na le
156_0365 lata mohatsae le lesea la
156_0366 e ngolwe ka maleme a
156_0367 ho kgahlanyetsa masopha le sekgonyana
156_0368 se mo hlahetseng mo romelle
156_0369 ho ke ke ha ntswela
156_0370 lefadikoloto ba reke dijole ho
156_0371 le ho se kenyeletswe ha
156_0372 e mengatanyana e thontshe le
156_0373 le ha e le ka
156_0374 ka ya ho masepala wa
156_0376 a emelwa tseko ho realo
156_0378 re mathibe o ne a
156_0380 grand theft auto
156_0381 ba e se e le
156_0382 eo khemiseng ya netweke ya
156_0383 video music awards
156_0384 ho ba le dibotjhe mekotjana
156_0385 ka ho kgaokgaoha le ka
156_0386 bolokang ba le leseding mamelang
156_0387 ka ha a ne a
156_0389 ya ho fetiswa ha letsatsai
156_0391 re ne re ya lehodimong
156_0392 ba ha e be ke
156_0393 e phethahatswe ke mebuso ya
156_0394 fumanwe ka ho se tshepahale
156_0395 dikuku dibiskiti teye le kofi
156_0399 axiomatic set theory
156_0400 wa ntsubisa seneifi ke a
156_0401 na e be eo ke
156_0402 ha di tshehe tswe ho
156_0403 uefa champions league
156_0404 sa methabolisemo ke ho ja
156_0407 international security assistance
156_0408 la ho ntshuwa ha batshwaruwa
156_0409 ofising ya manejara wa lebatowa
156_0411 wa rona wa ho keteka
156_0412 wa ngwana ya tswetsweng ka
156_0413 tselekaneng ho se amahanya le
156_0414 ke eo a se a
156_0415 ya phetolo ya lefutso e
156_0416 e ne e sa nowe
156_0417 thelevisheneng ke a ditshwantshiso o
156_0418 le tjhebelopele cjs e tlamahantsweng
156_0419 le ho kgutla sekolong o
156_0420 public transport network
156_0421 kgaitsedi le motjhana ba buileng
156_0422 wa ka o ka ikela
156_0423 civil rights movement
156_0424 le seboka sa phediso ya
156_0425 di hadikela ho di ja
156_0427 mmasilo makeleketla mangaung ho ya
156_0428 polao peto le ho otlwa
156_0429 e na le kgoka hano
156_0430 wa modise o a tella
156_0431 ne a sa tswafe ho
156_0432 tlhahisong ya moqo qo o
156_0435 holahola o a kgasa o
156_0436 sa bollang a a qhaleha
156_0441 a mo teteka a mo
156_0442 a tlohile matatilele a re
156_0443 bafe ba ka ha re
156_0444 se a siuwe ke makgaola
156_0445 mollo ke a dumela le
156_0446 hasan ali shah
156_0447 ho imolla nkgono ho jareng
156_0450 a a nkellang hloohong e
156_0451 international monetary fund
156_0452 sohle ho ya lebatoweng le
156_0453 sehlopha sa bokone nguni le
156_0454 d e f le g
156_0455 ne a makatswa ke ho
156_0456 ya ho hlwela le e
156_0457 e be o ya ka
156_0459 a ba a kgothotswa ke
156_0460 o ka diha nnyeonyeo o
156_0463 palo eo a e kolotang
156_0466 wa ho ya mo nkisa
156_0467 o sitilwe ke ho ba
156_0468 official seed testing station se
156_0469 bo yo ha ho ba
156_0470 dinyamatsane dikomang le diqabang ya
156_0471 old high german
156_0472 wa mmmadiepollo a re balakatha
156_0474 e sebeditswe le ho lefuwa
156_0475 e meile ho tsoma ho
156_0476 ka diotli ho lenonyeletso le
156_0477 ha se so ka se
156_0478 di a emelwa o ka
156_0481 fifa world cup
156_0482 kopano le ha ho le
156_0483 islamic courts union
156_0484 ha ho tletsethabo e sa
156_0485 baphedisuwa ba ka ya sephiring
156_0486 o se o le kgaba
156_0488 la melata le ho se
156_0489 ho hohela babadi ho reka
156_0490 wa general electric bekeng e
156_0491 ha ntate a ka a
156_0492 ha e se ho mo
156_0493 ho ne ho tjhesa ke
156_0495 tholang re se re le
156_0496 a se a le motjhining
156_0498 eo ba e fuwang ke
156_0499 dipolelong ka maetsi a matso
156_0500 ka tlwaelo e sa le
156_0501 german air force
156_0502 o ne a nkile moriri
156_0503 o a iphapanya o re
156_0504 engineering task force
156_0505 le tswello di ka fuputswa
156_0506 la provinse dibankeng le ho
156_0507 e governance e learning e
156_0508 po ka dimpa a be
156_0509 di bopilwe ka tsela e
156_0510 ho fapafapana ha ho kgethwa
156_0511 setho e tiisang boitshetleho ba
156_0512 ha ho kenwe selekaneng le
156_0513 le lebiswa ho moadvokate j
156_0516 united states congress
156_0518 hong kong island
156_0519 a ko nahane o be
156_0523 ho website ya lefapa la
156_0524 ya swine flu ke ho
156_0525 yaka le beso ba a
156_0527 e sa rerwang a sa
156_0530 ya ka ha e le
156_0531 ne a mo thobetse ra
156_0532 re se re o bolelletse
156_0533 o be o hlalose ka
156_0536 le mafika pontsho o a
156_0537 wa parole o ne o
156_0538 ya c ebang o sa
156_0539 e so lokele kwetliso ya
156_0541 san ji go roc sichi
156_0542 e amohetswe ho sasa le
156_0543 ha ho na moemedi wa
156_0544 phutholohile ha e ya rarahana
156_0545 manganga a tenang ho kgaruma
156_0546 e ne e le ho
156_0547 ke ho ananela le ho
156_0548 na o ka ba wa
156_0550 na ha ho le tjee
156_0551 fact date november
156_0552 ya ahloletsweng tjhankana ka ho
156_0554 ha se le ka felang
156_0555 le ho itokisa ho re
156_0556 ke re o kgopo le
156_0557 oo ha re a phekgohe
156_0558 towe o mo phetha ka
156_0559 ha o sa ithuti o
156_0565 ratahore re tsamayeng re ye
156_0566 le neletsano e momahaneng e
156_0567 ho ne ho phelwa ka
156_0568 kgulo ya ditefello e etswang
156_0569 o ka kubellang ho se
156_0570 o ne o se na
156_0571 e a nehelwa kgweding ya
156_0572 batlileng o tshwana le wa
156_0573 le nebank ho ke ke
156_0574 a ke ke a ntaola
156_0575 ba qositse bokgothokgotho ba diranta
156_0577 labalabele le ho bo labalabela
156_0579 ano ka ha a ne
156_0580 ke a itebohelaha ke sa
156_0581 fihleletsweng ke motsemoholo le diphephetso
156_0583 modimo ha ke sa ka
156_0585 se hlahellahakgama a ne a
156_0586 ya bosupa e se e
156_0587 ya kapele etla thabelwa ka
156_0588 haellang ya ma ntswe a
156_0589 sepolotiki le ha ho ne
156_0590 o na le ponelopele o
156_0591 re ke moletsane setsetse sa
156_0593 ya b ya foromo ya
156_0594 o busang le ho ameha
156_0596 ka ho phoqa oo be
156_0597 eo a ka be a
156_0598 nyollwa kadiranta le ha ho
156_0599 ya ho rekota hangata ho
156_0600 monene ha re ne re
156_0601 di na le babuelli ba
156_0602 american roman catholics
156_0603 nations general assembly
156_0604 united states postal
156_0605 e ba le tshita e
156_0606 maleme e ne e le
156_0607 botebong ba thabahadi a epe
156_0608 ao o a sebesisitseng a
156_0609 mmetwane ho nyenyefatswa ho tetekwa
156_0610 ba dikolobe tje o a
156_0611 di be le kgutsufatso e
156_0613 o sa qeaqee le ho
156_0614 ho ya ka pfma ke
156_0615 o ne a sa buse
156_0617 ke a ba a thoholetswa
156_0618 le ikarabellang ho peholeihlo ya
156_0620 ka re e kgathetse ke
156_0621 power parity comparisons
156_0625 o mo kgathatsa nyene le
156_0626 ya bohlabaphio ya rivonia di
156_0629 o a phuthuloha le sefahlehong
156_0632 a ho se tshwanelwe ke
156_0633 phahamele mapoqo e sa le
156_0634 ne ho se ya ithekang
156_0635 sejalo sa lekgala le babang
156_0636 o ho tenang a ho
156_0637 foreign exchange reserves
156_0638 ha a ne a latola
156_0639 wa boraro le ha ho
156_0641 le ha ba ruile ba
156_0642 ho botjwa ha komeshene ya
156_0643 a bathaoti ho tsakgwebo a
156_0646 eo re ka e fihlelang
156_0647 o ne a apere mose
156_0648 close corporation di partnership ditlelapo
156_0649 ke e lebang jwaleng ho
156_0650 be e le ho fahla
156_0651 a be pelonolo a be
156_0652 kenyelletsang ho rekota le ho
156_0653 swaba a re potlololo ha
156_0654 la rehwa lepoqo eo ha
156_0655 d i ha se a
156_0658 sa moraorao e ka ba
156_0659 se nkwang e le mputso
156_0660 se batlahala se fihlelletswe ho
156_0663 ho se ikamahanye le dipehelano
156_0664 discrete fourier transform
156_0665 ubella ditsuonyana a sa mekamekane
156_0666 ne ho timetswa ka ho
156_0669 ne e le mofufutso o
156_0670 silivera o pshatlehile ho pshatleha
156_0671 ba ne ba tswaseyalemoyeng sa
156_0672 lekola botjha le ho hlaola
156_0673 united nations general
156_0674 eo e ne e le
156_0675 bui sana le mec ya
156_0676 ne ba qenehela bara ba
156_0677 early bronze age
156_0678 ho ntheka ka leleme le
156_0679 monday night football
156_0680 wa genevieve wa ho ba
156_0682 a ka kula a holofala
156_0685 le yogathe e ka nwewa
156_0686 e le molwantshi terameng ee
156_0692 le phuputso e nyalanang le
156_0693 home loans pty limited eleng
156_0694 ya matjhaba e kenetsweng ke
156_0695 teile ka maqai a matonana
156_0697 ka kopanelo le ba folang
156_0698 le ka boikutlwahatso maemong a
156_0699 comic book series
156_0700 radileng ho ke ke ha
156_0701 molotov ribbentrop pact
156_0703 e fata e kuputsaka marole
156_0704 ditlhaloso o ne a di
156_0705 ramosebetsi a faneng ka tumello
156_0706 greek lang grc
156_0708 meqoqong ya botswalle ha le
156_0709 e kgolokgolo eo gabriel biala
156_0710 itshetlehile tshebedisong le tlhalosong ya
156_0711 roman catholic writers
156_0712 ke ba re ba nahanne
156_0713 a sa lofe a ka
156_0714 ho na le bo senyang
156_0715 ha a se a le
156_0716 mabitleng e ne e le
156_0718 le ho reseo a se
156_0719 be a se a re
156_0720 na le ho se hlake
156_0721 la lkb le khm ho
156_0723 ha ho le lefifi kgathe
156_0725 thirty years war
156_0727 ho ke ke ha thwe
156_0728 kaofela re ne re hopola
156_0729 ho ka se be le
156_0730 tshotleho ha se ditlhong lemanyofonyofo
156_0731 nebank ho ke ke ha
156_0732 dikelellong le maikutlong ha ho
156_0733 bo hlothe ka ho sa
156_0734 la phuputso tokisetso katiso le
156_0735 hlwauwe ke commander le ka
156_0736 e hlomphehang ya ho re
156_0737 ho iphupuletsa ka bobona e
156_0739 ee a ke o re
156_0740 se ba tsamaile ho setse
156_0741 ho bahlahisi ka ho ikenyetsa
156_0742 molli a sa ka a
156_0743 home field advantage
156_0744 o hannefeela ha eo a
156_0746 world cup players
156_0749 e ngotswe fatshe ke le
156_0750 sedika ya directorate saafqis ke
156_0751 ba thuhakang ba kakasakang ba
156_0752 fact date august
156_0753 a se a sa kgahlehe
156_0754 ya ho re ho uwe
156_0755 o ne a se leqhoko
156_0759 e ne e le ya
156_0760 san suu kyi
156_0761 di le botsho bo bopudutswana
156_0763 ya paye e sa fumaneheng
156_0766 mofu a sa siya molekane
157_0003 dutch east india
157_0009 a tiisa ke a hlapanya
157_0011 holofetseng ba siuwa ba le
157_0013 ruburiki eo o e fuweng
157_0019 pope gregory
157_0022 ho ba le kemedi e
157_0024 united nations security
157_0027 a tlohe tekenikonong ya witwatersrand
157_0031 e ne e le moqebelo
157_0032 random variable
157_0036 a fumanang mohlahlabuwa a arabile
157_0037 e be e o jesetse
157_0040 ha e se a bontshitsweng
157_0047 religious organizations established
157_0049 video game console
157_0051 ba banyenyane a re psa
157_0052 se ke ke sa o
157_0053 o tletlebe o be o
157_0055 di loketse bomang ba dilemo
157_0061 academy award nomination
157_0066 junior high school
157_0071 thajana ya mapungubwe kamorao ho
157_0074 butle ka ho betsa ka
157_0076 ao a ho tshoswa ka
157_0078 mokoena akhaonto ya polokelo ya
157_0081 hlwahlwa tjhebelopele le pono e
157_0085 pope paul
157_0086 e ke ke ya leshwa
157_0087 silika e be ho ba
157_0090 e kojwa e sa le
157_0092 ho kenya tshebetsong leano la
157_0093 ba neba e buela sekgukgung
157_0094 bo ne bo methwe ke
157_0095 mdnb le ho rala mekgwatshebetso
157_0096 orbital angular momentum
157_0100 se thwasang se ke ke
157_0105 ka booker t big show
157_0108 ha a se a bitsitswe
157_0109 kahong ya maitemohelo thekenoloje le
157_0110 moshweshwe moshwashwaila ya e ba
157_0111 o a tshabeha e sa
157_0112 e teletsana ho e henahena
157_0117 phetoho phedisanong ya semelo le
157_0119 le ho tshireletsa baletsaphala le
157_0120 atlantic slave trade
157_0122 ho ka ba le ngangisano
157_0125 of sa hpcsa e sa
157_0126 phephetso eo re tjamelaneng le
157_0129 national geographic society
157_0130 hokelwa e le ho kgutlisetsa
157_0132 e fosahetse athe ya bobedi
157_0140 be ke le hlokela tlhompho
157_0141 ba re le dipampiring e
157_0146 ka la moshweshwe moshwashwaila ya
157_0147 phamokate din a le ketsahalo
157_0150 i e tsolo le qumbu
157_0155 qholotsanwa ditjhaba di telela le
157_0156 phahla pinyane ere ka ha
157_0157 ho na le tshabo ha
157_0162 ka e ne e re
157_0164 ne a ikemeseditse ho mo
157_0166 diforomo ha di fumanehe khomputeng
157_0170 e se e bolailwe kematetetso
157_0171 thunngwa sephakeng a ba a
157_0175 ke ke ra swabela ho
157_0177 ka ncs batlolamolao ba hlahlobilweng
157_0181 scottish national party
157_0183 des arts et
157_0185 a jwetswa o bonwa ka
157_0191 hakatsa bahlabani le ho tshosa
157_0192 ya diteropo urban renewal plan
157_0197 moteaphala o thontswe ho ba
157_0198 fatshemoo sa mo hulela ho
157_0199 sci fi channel
157_0204 ha o ka wa ja
157_0207 national inventors hall
157_0208 be ke tsosa dibata masene
157_0209 o ke o tlohelle ho
157_0210 ho ka ba le kgohlano
157_0212 le ho kenngwa tshebetsong ha
157_0213 ha ho na le ditletlebo
157_0215 ka tsebiso ya koranta ya
157_0216 o itlama ho se behe
157_0221 ka motes wa bahlomphehi wa
157_0222 ba be le tjantjello ya
157_0223 tb e ne e sa
157_0228 ford motor company
157_0231 united states president
157_0232 puong ya lapeng ho ya
157_0235 wa tleliniki ho o fa
157_0237 modula le ho diehisa ho
157_0238 haeba o le bookameding bo
157_0239 manager ka ho ya ka
157_0242 qhoba bosiunyana bo le bongnyana
157_0248 yaba o a thola ho
157_0250 di ka fihlelwa ka ho
157_0252 tsemashome a robedi ba sebetsahoba
157_0254 e se e le mesuwe
157_0257 international hydrographic organization
157_0263 le ha ba e na
157_0268 ke nku ha a lle
157_0270 re ke mo letele ke
157_0271 o se a mo kgorohela
157_0272 sa ntome le ho ntoma
157_0273 ba ne ba phethelwa ditshomo
157_0280 american television actors
157_0288 o ne o se turu
157_0289 ka ho fetesisa ke ya
157_0290 roman catholic archbishops
157_0291 united states constitution
157_0292 he a tlelwa ke ho
157_0295 new south wales
157_0296 ka tlung eo le e
157_0298 b e ka fetisetsa ho
157_0299 na le letamo le tebileng
157_0301 art deco buildings
157_0303 ka pelepele boitekong ba ho
157_0304 dineo na o ne o
157_0306 se phethe tsweng se setle
157_0307 moiteding bashanyana ba ketimisa dikgamelwana
157_0308 e laollotswe setsheng sa internete
157_0309 american airlines flight
157_0311 ya e mail mosebedisi a
157_0315 ya ho theha mbm e
157_0316 e le lekomonisi baokamedi ba
157_0318 ke eo e feletse ka
157_0319 ho shejwana ka la moleka
157_0320 e menyenyane ha e na
157_0321 ya tlhabollo o ka e
157_0327 rolling stone magazine
157_0328 world heritage sites
157_0332 ha a letsebe le sa
157_0334 e ke ke ya ba
157_0336 fact date september
157_0338 iv ho dilatantle le thekisontle
157_0340 north american continent
157_0341 o se a re jwetsitse
157_0343 le tsh wanetse ho o
157_0345 ha di a pepeswa ho
157_0346 ba le ho ritsa ho
157_0347 ho jareng kidibitla e kanakana
157_0350 a mo sotla ka ho
157_0353 ka ho teneha tjhe le
157_0354 eo tabataba e ne e
157_0355 ho ya ho e ithutwang
157_0356 soba la nale a ke
157_0357 ho na le kotsi ya
157_0358 haeno ha ba a ka
157_0359 c ebang o sa etse
157_0360 ya diflete le c ho
157_0361 e ka tshehetswang ka h
157_0362 cbnrm e ke ke ya
157_0363 sitiswa ke hona ho nwa
157_0364 states military academy
157_0365 le phelaka ho kolla ntsi
157_0366 eo ho nkuweng sampole ho
157_0367 o halefiswa le ke dinthwana
157_0368 ata a ko qoqe ka
157_0369 o sa amaneng le baadimi
157_0370 mo re ka o letsetsang
157_0371 marapo a dieta a kgaohile
157_0373 boreki o ne a sa
157_0374 e lekgatheng la lephethi e
157_0375 o e filweng potsong ka
157_0377 a moipiletsi a boipilets la
157_0378 o se ke wa pompa
157_0379 le barwetsana ban e ba
157_0381 o ne a sa phefumoloha
157_0384 ya e ba ba ho
157_0386 se ke wa ja pakeng
157_0389 delta air lines
157_0390 ka potlako ka ho ya
157_0392 katse a se hlwella a
157_0393 sefahleho ka keketso kamehla o
157_0398 o ne a sa tsejwe
157_0399 thodisa se itsheleng ka meokgo
157_0400 new model army
157_0401 o ne a thabetse ho
157_0402 ho ya ka botelele ba
157_0403 ke ne ke sa di
157_0404 o re ho na le
157_0406 se e le ha o
157_0407 ke ho re a behellwe
157_0409 a saense a hlapi e
157_0410 a eo ya ngollwang e
157_0411 seven years war
157_0412 le ha e le hofe
157_0413 o a qhoma manana ngwananaya
157_0414 o fa ntlhakemo ya ka
157_0416 ho iphelela le ho e
157_0417 including best picture
157_0418 international film festival
157_0419 ne ke se ke dikelletse
157_0421 e ne e kenetswe ke
157_0423 sa mothomo se ne se
157_0426 ke a ja ha ke
157_0427 hlompho ho tlotleha ho ba
157_0431 ba le lmld ka ho
157_0434 nkile maeto e le bo
157_0435 e menyane le e meholo
157_0437 e ne e qaphaletswa ke
157_0442 o tjha ntshi ke ka
157_0443 b o lemaditswe ke se
157_0444 ditshwantshiso o ka qaboha ha
157_0445 ja o mo bolaisa ka
157_0448 ho ba e lokileng le
157_0449 aneng a ka ba le
157_0451 a sa dumele ho ka
157_0452 congo free state
157_0454 ha ba sa tsotella ho
157_0456 devan gar
157_0458 baseball team based
157_0461 ha a ya a lebile
157_0462 ya modumo le e bonwang
157_0463 ao ke a hlalositseng ka
157_0465 o hlanohetswe le ke bothabang
157_0466 ba ntjang direthe hommeng he
157_0467 ho hula marothodi botlolong eo
157_0468 le tlhoko ho fihlele o
157_0469 ya selemo le selemo ya
157_0470 a be re sa di
157_0473 ke re o ne o
157_0474 united nations high
157_0477 ha ho boletswe le ho
157_0478 ho ka ba molemo ha
157_0479 american stage actors
157_0483 emg temg tpp amemg bpmmete
157_0486 matona a robong ho etela
157_0487 swordfish antarctic toothfish and patagonian
157_0491 o ne a ikemeseditse ho
157_0492 mean solar time
157_0493 ho ya ho thuseng ha
157_0495 ka sepheo sa ho hlwaya
157_0496 ha ho se ho kgutliswa
157_0497 dikerekeng mafung ba a eta
157_0500 ba re e ne e
157_0501 ya ho se akaretse ba
157_0502 icd e ka laela ka
157_0504 re ha ho ne ho
157_0506 e rua le ha ho
157_0510 e ka suptjwa dipha ke
157_0511 ha kgutshwanyana ho ya ka
157_0512 a ka ya mo fodisa
157_0514 purchasing power parity
157_0516 ka ba mabe le ho
157_0518 ke ye a se pholla
157_0520 ho ne ho se ya
157_0522 kostsi le ke ke la
157_0523 ne a ba tsometsa a
157_0531 ya ho ithuisa e ka
157_0533 ka hloko o nto araba
157_0534 e be se ha se
157_0537 bo bottle ha a ka
157_0538 e ne e se bo
157_0540 ha ba ne ba nyalana
157_0542 bo be bo o timella
157_0543 john quincy adams
157_0547 ho na le phapang ya
157_0552 le thabo e renang pelong
157_0553 o ne o ka bonafeela
157_0558 ho thapa o ne a
157_0565 bo ntshuwang v ha ho
157_0566 kgotso le eo molekane wa
157_0568 le dioli di na le
157_0569 a sa phomole o ne
157_0570 e ne e sa kgotsofatse
157_0571 dithaka ka dithaka ke ya
157_0573 ona e ne e le
157_0575 ho ne ho buuwa ka
157_0576 narrow gauge railways
157_0578 english common law
157_0579 le phahamele mapoqo e sa
157_0581 se ne se ahuwe ka
157_0583 a qamaka kwana le kwana
157_0584 setorouku ho ye ho hlokahale
157_0585 ke ke wa ntshitisa ka
157_0586 wa phethahatso le moifo wa
157_0591 dipampiring e ne e le
157_0594 eo o ka e tlatsang
157_0596 supreme court decision
157_0598 a re gedan barai kumite
157_0601 states army soldiers
157_0602 leshome le metso e mehlano
157_0605 mphe semeremere le tshea ke
157_0606 ya panama ya re pheu
157_0607 pepeneng le ho se be
157_0611 le leng le le leng
157_0612 ha o se o ngodisitswe
157_0613 e sa le ke na
157_0614 se na tshitiso palong ya
157_0615 wa tlelapo ya lantjhe b
157_0622 ba thapameng eo ha hanghang
157_0623 ka masela a tafole le
157_0624 eo ba e late lang
157_0625 ho ka maiteko a ho
157_0627 e duma ka hlohong ya
157_0628 bomme ba se ba leleka
157_0630 a ne a ipuella ka
157_0633 ho ne ho le thata
157_0637 employee assistance programme eap ka
158_0002 di ne di se na
158_0003 le sekgobo ho qhellwa ka
158_0005 ya ho hira ikopanyeng le
158_0006 ya mmampodi kgwaolla ditswakotleng jm
158_0007 south west england
158_0008 helang le ho hlophisetsa pan
158_0011 ho kopanela tekenoloji phetisetso ya
158_0012 maobane e ne e le
158_0013 o patisaneng wa phumano ya
158_0014 le bothong o ba le
158_0015 re makau ke sebapadi sa
158_0016 le vii ho diswa ho
158_0017 ya eommae e be e
158_0018 e le ba moradi wa
158_0019 le behetsweng ho ba la
158_0020 la ka ke se ke
158_0021 ha o ke ke wa
158_0022 le halofo ho isaho a
158_0023 bronze star medal
158_0024 hlokahallwa ke eo o mo
158_0026 roman catholic monarchs
158_0027 ba polasi ba be le
158_0028 ne le le mading a
158_0029 fact date december
158_0030 toustu bisekiti le raske dinong
158_0031 ditaba maikemisetso maemo le sebopeho
158_0032 ya ho ingodisetsa sephethephethe e
158_0033 ba dipatlisisomme a mo eletse
158_0035 eo a e sietseng rehauhetswe
158_0036 sehlooho se sekasekwa le ho
158_0037 ne a sa mathe o
158_0038 belehwa ha e ba ntshe
158_0039 ho ya moketeng e ne
158_0040 ha di tswane ba ba
158_0041 o re phethele ka se
158_0043 kasefuthu le ka lekgetlo le
158_0044 potlolomente e sootho e mabanta
158_0045 ba a tsieleha ha ba
158_0049 ho tshwaetsa ho phatlalletseng ha
158_0050 matsapa a ho ntshampa eo
158_0051 prime number theorem
158_0052 ba a re nyatsa ha
158_0053 thabisa difofane le dikgoba dihlokaboya
158_0054 ke ya html le ha
158_0056 a botona marong a ntshuwang
158_0057 monyenyaneyena o ne a enale
158_0058 mebaraka e bulehileng kgwebisano ka
158_0060 ha a ka a se
158_0061 dikgotjheletsaneng ha o ne o
158_0064 o se ke wa senya
158_0066 canadian prime minister
158_0068 ba ka fihlellang ho ka
158_0071 makopanyi maemedi le mahlalosi ho
158_0072 ho hlwekise khotone le h
158_0073 ka morero wa ho matlafatsa
158_0075 ho itsebahatsa le ho utlwahatsa
158_0076 ho ya hlwekisa le ha
158_0077 leruo le utswitsweng jj le
158_0078 ke ya di heleng ho
158_0079 dibasari ka ho ya ka
158_0081 south china sea
158_0082 ya phahello e lebelletswe ho
158_0083 nyetsweng di ne di siile
158_0085 se sebapallwa ke moraparapa wa
158_0086 nyahlatsa pistolo le mahlahlelo a
158_0087 le matheriale oo mohiruwa a
158_0088 lethathama la tlhekatlheko le ho
158_0089 ba ka iketsetsa meusiamo wa
158_0090 re ho etsahalang hantlentle na
158_0091 mofuthu ha o ne o
158_0095 aithunya ho ne ho sa
158_0096 a na le moetsi le
158_0098 ke a iketsisa ha ke
158_0099 phethelwe ha ho thetheswa bohadi
158_0100 on o hlomphehileng ha kana
158_0101 wa bonaha re se re
158_0102 e sa ntsane e le
158_0103 state university alumni
158_0105 qale ho ebesela a ntjhafale
158_0107 sa madibase mo nyeka hotloha
158_0108 re be re phehisane ka
158_0110 hanyenyane e ne e se
158_0111 ha ho na ntwa e
158_0112 ba ne ba sa di
158_0114 mohlohlwa o rapame se a
158_0115 le amo kodisa a be
158_0116 eo o e belaelang ho
158_0118 supa matstasi a ho qala
158_0119 di iketlile di ja lekomo
158_0121 market prices estimated
158_0122 ne a sa halefe vmotsotso
158_0123 ha mothendari a ka phumola
158_0126 ke re llang le bokolleng
158_0128 major professional sports
158_0130 a ne a le sekolong
158_0132 united nations standard minimum rules
158_0134 se ritetsweng ka oli ya
158_0136 ka hofetisisa e ne e
158_0139 ya seyalemoya le theleveshene di
158_0140 be le tshitiso bokamosong ba
158_0141 nuclear power plants
158_0142 cite web title
158_0143 ba ka di lebellang ho
158_0144 a se a kgahlilwe ke
158_0146 ha ke ne ke tonne
158_0147 dihlahiswa ho pakela le ho
158_0148 a na le manyesemane le
158_0149 native american culture
158_0150 united states senate
158_0153 ha a se a rutehile
158_0155 e be kwakwa ya ho
158_0157 ma ntswe ka boiqapelo bo
158_0158 rupella le ho kwetlisa ho
158_0160 ithwetse ha o mmona a
158_0161 monyako o sa notlelwa ho
158_0163 ho ya qhekella mofumahadi ke
158_0166 o se o hlwele matsatsa
158_0168 se a na le mabakanyana
158_0170 sa leke ho mo nyokola
158_0171 mo kwala molomo ka mpama
158_0172 di sa di bolaye di
158_0173 north american plate
158_0174 je mabele a matjha masimong
158_0175 le matitjhere ba se ba
158_0176 e phethwe boramesebetsi ba ka
158_0177 ya dikarolwana le value matices
158_0178 o e ise ho lekgathe
158_0179 e sa ratweng ha ke
158_0180 e ne e sa hlophiseha
158_0182 fapana ho tloha temeng e
158_0185 ha ke re ke o
158_0186 o fodile a mo nwesa
158_0187 beatrice a be a le
158_0188 probability density function
158_0190 le tlhokahalo ya lebotho la
158_0191 le ha e sa laele
158_0193 be le tekatekano le ho
158_0194 le thakgiswe sebuweng o a
158_0195 york stock exchange
158_0197 dead link date
158_0198 ke e tsebisisa hantlehaholo le
158_0199 ho lokollwa ho itshetleheng ho
158_0201 balla hodimo ka bolokolohi le
158_0204 peto le ha ho na
158_0205 inehele sepoleseng e se e
158_0211 o balehang ho bebofaletsa motshwai
158_0212 eo ba ka e nkang
158_0213 time magazine persons
158_0215 kotsing eo o amehileng ho
158_0216 ba batlileng ba mmolaya ka
158_0217 ho fihlelleha ho fihlelleha ho
158_0218 e nkuwang e fokoditswe e
158_0219 sitisitswe ke ho se be
158_0220 science fiction themes
158_0222 ho ne ho hlakile ho
158_0226 internet relay chat
158_0227 e ka shadingwang ha ho
158_0228 ba leloka boa o amang
158_0229 ho latelwe ho sayeng ka
158_0230 ha e sa le wa
158_0232 mofepedi ha ho sa be
158_0235 ho ka be ho le
158_0237 ba bokana mmathabo a rwala
158_0240 ha e na tlhophisetso eo
158_0241 ho sosobana ha diaparo le
158_0242 western united states
158_0243 wa albert montasi sweni o
158_0245 sa foleng a holofatsang a
158_0246 tekanyo ya kgolo ya moruo
158_0247 wabatho a ferekana le ho
158_0251 ho ntlafatsa tatso ya dijo
158_0252 phuputsong botjhutjhising le ho mamelweng
158_0253 nuclear power plant
158_0254 ya id ya morekisi le
158_0256 b c d le e
158_0257 be bo se bo mathetse
158_0258 a ba a thubaka fanetjhara
158_0261 ba ngodise ho south african
158_0265 national league championship
158_0266 hohle ho ya ka merabe
158_0267 ba ne baitshepetse ditaola le
158_0269 intelligent design proponents
158_0270 e totobatswang papatsong e ka
158_0271 tswetsweng ka ntle ho lenyalo
158_0272 ne a se a ikgodisitse
158_0273 ho e hahlaula ha e
158_0274 ke sekgukguni a ne a
158_0275 ke bokwata bo fetisisang e
158_0276 new economic policy
158_0277 dikontrakeng ditshupamelatong ditjhekeng mangolong a
158_0278 ba mo shapa ba mo
158_0279 ke rg hlohong o na
158_0280 ho hloho ya yuniti ya
158_0281 a se ke a ya
158_0282 e a ka ya mo
158_0283 tsebeng le ha di ne
158_0284 letsoho la ka le ruruhile
158_0285 ndoh le na le dilekane
158_0286 law enforcement agencies
158_0287 ditlhoka furu e sa silwang
158_0289 sa poloko le phahamiso ya
158_0290 european free trade
158_0291 a le b le c
158_0293 amino acid sequences
158_0296 tulo eo ho shebana le
158_0297 ba dumetse ho se lefise
158_0298 ya ditameneng shu ha di
158_0299 ya regulatory inpact assessment ria
158_0300 ba le ho se hlahiswe
158_0302 table mountain e apesitsweng ke
158_0303 ba tshehang ba keketeka ha
158_0305 khoto ya biri ka boholwanyane
158_0306 seafrikanse din e di le
158_0308 latin american countries
158_0310 ba le programa ya ho
158_0313 le moholwanae ho kuleng ha
158_0315 se re kopantse se fella
158_0317 ba ka bo ka fediswa
158_0318 phaphama ke ha a ne
158_0319 ne bo se bo ka
158_0320 kgothalleditsweng ho na le ho
158_0322 ha e se ho ntumedisa
158_0323 ya matamo a ho sesetsa
158_0324 o sebetswang ke baoki ba
158_0325 ke sa e hlalohanye ho
158_0327 ba e sebedisang ba fuwa
158_0329 ho e na le malapeng
158_0330 dikotsi le sesosa se ka
158_0332 rarollwa le ha ho le
158_0333 king george
158_0334 ha ho ne ho le
158_0335 sehang terata e meutlwa e
158_0336 ka mahlasedi detsebiso weposaete le
158_0339 le bareki le ho nehela
158_0340 ne e le lebelete le
158_0341 parreira le dibapadi ka botsona
158_0342 baa ba ne ba kopanele
158_0343 sisa se hlahiswang ha ho
158_0344 le le bohlale ho mpheta
158_0346 interim prime minister
158_0347 ding ke be ke ipotse
158_0351 palestinian national authority
158_0352 ne ba nwa le ho
158_0353 television shows set
158_0354 memo ya thekiso ya diabo
158_0355 ka ha o fetotswe melawana
158_0356 ha ho na le phapano
158_0359 eo ka ho latellana ha
158_0360 ikgula kgohlanong ya ditabatabelo e
158_0362 kereiting ya borobong ha a
158_0363 ka ho ya ka diprovinse
158_0366 ho phahamisa boemo ba profeshene
158_0367 le bohlweki moaparong le dipuong
158_0369 bophiritona ba re ho o
158_0370 ya a b le c
158_0380 cambridge university press
158_0381 ne e se e nyeunya
158_0383 o senatla ha ke re
158_0384 ke ne ke sa swaswe
158_0386 new zealand english
158_0387 na le kgahla ho seipati
158_0388 kgolwao potile le ha rangwanao
158_0389 ka ho shapuwa ke e
158_0391 san francisco giants
158_0392 le khroumu letsopa lehlabathe le
158_0393 e betsetswa ka fensetere a
158_0394 tangtang ya kgangwa ke lerole
158_0397 kopi e tiiseleditsweng ya id
158_0399 ha ho qellwane ke masiasiane
158_0400 sekepe sa ho tshwasa ditlhapi
158_0401 ha a ne a ya
158_0402 ya fumanang di ke ke
158_0403 le ho adoptha ho itholla
158_0404 ka ho ya ka diafidaviti
158_0405 ke seikokotlelosethusangmotho ha a na
158_0407 a ja ha ke kgore
158_0408 ntho e ntenang ka ho
158_0409 ka dikhanselara le ho ba
158_0411 ho se lekane ha dipuo
158_0412 se ka tshwarwang ka menwana
158_0413 o ne o re ke
158_0414 ya ho sutha mokgweng wa
158_0415 ho kwadiaka ho hlakana a
158_0416 ha ba e na le
158_0417 koduwa ya ho kgaoletswa a
158_0418 ba hohlola le ho ba
158_0419 vicky strydom o tshepisitse ho
158_0423 ba mo rahakaka molatoane o
158_0424 seo o lokelang ho se
158_0425 wa selalomehadi sa sekwenyamatjhaba ha
158_0426 hlalositsweng ho tjhata ya mahlatsipa
158_0427 mmonang ha a se a
158_0428 la ho ya amerika le
158_0429 bannga ba mapolasi le basebeletsi
158_0430 feela leha ho le jwalo
158_0432 sydney opera house
158_0433 ke ne ke sa lwane
158_0434 le dineo na o ne
158_0435 kamoo o nwang dinotahi le
158_0436 e hlahiswa ka bofokodi bo
158_0439 homo phatsa o ileammeha ditlhakatse
158_0440 francis ford coppola
158_0441 ahlakola seretse se e silafaditseng
158_0442 le kgonwe ho fihlelwabakeng sa
158_0443 o ne a atisa ho
158_0444 jwaleka ha ho hlalosetswe mohato
158_0445 le nafci le tshwarahane le
158_0446 e buela sekgukgung dikgotjheletsaneng ha
158_0447 a lefuweng letloleng la mohlokomedi
158_0448 o a ntlhola ngwanaka ha
158_0449 ho robala ke ho fetoha
158_0450 e ka ba nyane hakae
158_0451 e bmosiuwa ke mohlahlami boreneng
158_0453 ekare ke a iketsisa ha
158_0454 ha e ke e binwa
158_0455 le ne le ba etseditse
158_0456 e na le boithati bo
158_0457 microwave background radiation
158_0459 o sa tshwanelang ho e
158_0460 independent media diversity trust ha
158_0462 ntjha le diphetolo ngodisong e
158_0463 tlisitsweng ke bokoloniale aparteite le
158_0464 ho ya dikopanong le disimphosiamong
158_0465 nkga a re phu ke
158_0466 science fiction fandom
158_0467 lossless data compression
158_0468 e etsetswang bafumanehi le dihlopha
158_0469 ba srsa ho ya ka
158_0470 be o itheola seriti ha
158_0471 ka mahahapa tlatlapo ya ditsha
158_0472 ha ke re o a
158_0473 le ho sireletsa lehlakore la
158_0474 ikamahanya le ba reretsweng ditaba
158_0475 founung botoloki ba founu bo
158_0476 di lekole kgafetsa re lokise
158_0477 le ho ba nolofaletsa ho
158_0478 ne a hloriswa kehlooho e
158_0479 se ntshitsweng ke laboratori e
158_0480 di hlaphohetsweng ba ne ba
158_0481 a lerato a ne a
158_0482 sa ho ba le ditlhahiso
158_0483 hapelefatshe le ke ke la
158_0484 le polao eo e sehloho
158_0485 ho nnetefatsa lekunutu la molli
158_0486 ba dikapeso ho ba diporofeshenale
158_0487 ha e betsetswa ka fensetere
158_0490 ke ya sa ba hlalosetseng
158_0491 ba se ba tshwasitse tlhapi
158_0492 ha o se o fihletse
158_0493 qatile mohatla kobo di fokaela
158_0494 eo ba be ba be
158_0495 baokajeno e sengele dikgutsanakgudu ke
158_0496 ho akaretsa le ho kgema
158_0497 gold medal recipients
158_0498 numeric character references
158_0499 re roba dipelo he moradia
158_0500 sebeditsweng lehlaso o be o
158_0501 se le re rao le
158_0502 eleng pharela le ha ho
158_0503 molaong melawaneng le molaong o
158_0504 tlelapo ya lantjhe b o
158_0505 tjheseho ya ho ka di
158_0506 a ka kgaotsa ho tsuba
158_0507 dipatlisisong a ka bitsa dipaki
158_0508 warring states period
158_0509 ne a tsebahala ka ditlolo
158_0510 di utlwang di na le
158_0511 a ananelwang ke ldab le
158_0512 mmamesa poeyana re senotswe re
158_0513 ho natefisa le ho hatella
158_0514 ha re e lemeng re
158_0515 ke ne ke sa kgolwe
158_0516 a phakisa ho o nyahlatsa
158_0517 makotofa a tjhesang ke a
158_0519 ha ho bonahale e le
158_0520 lebitla ee ho ne ho
158_0521 se amoha tlokola se e
158_0522 national football league
158_0523 le ya ho ya ho
158_0525 ya metara wa karata le
158_0526 shebuwang le nomoro ya ya
158_0527 ronewa o ne a sa
158_0528 eo e feletswe ke ho
158_0529 tlala morolo ha e le
158_0530 lene le sa thapiswake boikaketsi
158_0531 ha ho a loka ha
158_0532 le ka ngamoha la mo
158_0533 ralehlatsa o ne a tahilwe
158_0535 o se ke wa ya
158_0536 american film institute
158_0537 charles sanders peirce
158_0538 ho utsuwa mabenkeleng a ka
158_0539 feleheditsweng kemoya obatang le ho
158_0540 ho qoswa ha mokhomishenara wa
158_0541 president lyndon b
158_0542 nyalle thollo bafokeng ba mo
158_0543 banna anthe perekisi e monate
158_0544 fixed point theorem
158_0546 ao aneng a ka ba
158_0547 ka meferefere ha ho se
158_0548 wa sejapane ho ne ho
158_0549 los angeles times
158_0550 monene ha le ne le
158_0551 sa kgahlwe ke morwetsana o
158_0552 potlakileng le o sebetsehang o
158_0553 international criminal tribunal
158_0554 qobe le ho nena dinyehelo
158_0556 re ka ra iketsa marematlou
158_0557 e ka beng e sa
158_0560 hwa jewa dikuku le nama
158_0561 bo kgile ka dikgopo le
158_0562 ba ya re tlole ka
158_0563 ka moro metsi a le
158_0564 d mohwanto wa bakganni ba
158_0565 hello world program
158_0566 a re botsietsi ba inehele
158_0567 o se ke wa ba
158_0568 di sa tsitsitse a re
158_0569 la nkgwebetha la re ke
158_0570 tu ebile ha ho sa
158_0571 saena ho se mo amohe
158_0572 helang ha e sa le
158_0573 ne e le ya ho
158_0574 di se sebetswe ka le
158_0575 kgoho e tshwerwe ke mokoeyo
158_0577 makubetso le ho ja ho
158_0578 letootong le sa kgaotseng la
158_0579 eo ya tedu di putswa
158_0580 o ne a hlahafetse ha
158_0581 ke sa ka ka botsa
158_0582 ha senyeha ka holong ya
158_0583 adriaan a mema borakgwebo ba
158_0584 matatiele ha a ne a
158_0585 ke ne ke hloname ke
158_0586 o ne a hlodiya ramaqiti
158_0587 re le ha e ne
158_0588 occupied cypriot area
158_0590 iran iraq war
158_0591 sa utlweng ditsebeng le ba
158_0592 ha ho le hongata ho
158_0595 bo sa amoheleheng le ho
158_0596 ya kotulo eo ba e
158_0597 a se a futhumetse a
158_0598 ya ka e lokolohang ke
158_0599 eo nalane le jokorafi di
158_0600 late twentieth centuryodowska curie
158_0601 geologic time scale
158_0603 ha se a ka sa
158_0604 tb e tsohileng ba ka
158_0606 mmathulare hammoho le qaka eo
158_0607 tlalang le ha ho le
158_0608 sa kgotsofatseng ya cjs ha
158_0609 a ho enta le ho
158_0612 ha ho na makgala a
158_0613 e tsamaelane e le ho
158_0614 tswekere ya illovo e tshweu
158_0615 ka boyona e ke ke
158_0616 le ha ho se ho
158_0617 ke se sengangele a ka
158_0619 box office success
158_0620 ho borithane ho ba ka
158_0621 ke iphetola setshehisa sa rammolotsi
158_0622 re o fiela phaposi ya
158_0623 le ke le nthuse ho
158_0624 united states supreme
158_0625 hla a ala leleme phate
158_0626 a bohla o ne a
158_0629 ka ho ngollwa ka ha
158_0631 ke tjhefo e kwaeng e
158_0632 ha o re re bitsetse
158_0633 a thupelo diphetolelong le tlhaolong
158_0635 ya bokenadipakeng ya tonakgolo e
158_0637 president franklin
158_0638 o sa qoqweng ke dipapiso
158_0641 re tsho ho ne ho
158_0643 la mammila le okametsweng ke
158_0644 o ithetsa ka tsiemokopu e
158_0645 morabaraba sethetsabadisana ha ho bolelwa
158_0647 le sa le letjha ho
158_0648 ne a futsitse lebitsola haehobanee
158_0649 ke eo o kwenehetswe ke
158_0650 ka ha ho bontshitswe tekodisiksong
158_0651 a ka wa phethisa ka
158_0653 yom kippur war
158_0654 ne o kopile koranta ho
158_0655 states coast guard
158_0656 polakwang dihekeng le mamating a
158_0657 clarify date january
159_0003 e qaqisitsweng sehlomathisong sa a
159_0005 di bapisa ie ho di
159_0006 captain james cook
159_0007 semomotela pabala twadi e padileng
159_0010 eo ke e palamang ka
159_0015 pheha o bohale le ho
159_0016 ke mo tshabang ho nkgisetsana
159_0017 single transferable vote
159_0020 kgutsitse tu yaka ha ho
159_0027 le lera la lefufuru lefufuru
159_0031 ha ke ne ke pepile
159_0038 nuclear weapons program
159_0046 ba di embryo di ova
159_0047 ke toloketswe le ho hlalosetswa
159_0049 re o se a di
159_0053 sa itekanelang ba tsofetseng le
159_0054 ho ka ba jwang ha
159_0056 church turing thesis
159_0059 studio le setsha sa transmishene
159_0060 di se di le mothating
159_0062 ba sa ngodisang ha ba
159_0064 o mogn oo ba o
159_0065 soviet red army
159_0069 la re ke le nyaye
159_0070 ha e a ka ya
159_0072 wa dulela ho rabaka tje
159_0074 berne convention berne convention ke
159_0076 metal gear solid
159_0083 ka dikelello le ha e
159_0084 ho tliswa ke tshebedisanommoho e
159_0085 le lefatsheng la komello mahwatateng
159_0086 kope ho o fa setifikeiti
159_0087 north west company
159_0089 mosuwehlooho a ne a mema
159_0090 ha ke ne ke re
159_0091 british armed forces
159_0092 e le bahlodi e le
159_0093 ho re senolela mofehelo ya
159_0095 ba di faetseng makgistrata a
159_0096 hlomamisa dikomiti ho ya ka
159_0097 ho se na moloko o
159_0098 palesa o mo sheba ka
159_0099 le ba ma komonisi le
159_0100 le ho ja re sa
159_0101 a kopanang le sekweta se
159_0102 se a thusana se arolelana
159_0103 e phethahatswe le c nkela
159_0104 le tshwaneleho ya ho ba
159_0105 ne di sa susumeletswa ke
159_0106 ka mawala a hokahantsweng a
159_0108 sa lepoqo ha se kgutse
159_0109 o atlehe e le ka
159_0110 ne a ye a sadise
159_0111 se a retlile moletsane ka
159_0112 tu ka ho panya ha
159_0113 ba di je ba ke
159_0114 ha a sa batlane le
159_0115 ho re o ne a
159_0116 ba tsheletseng ba thontshweng ke
159_0117 na e be le a
159_0118 ne a sa itlwe ka
159_0119 ba nebasena boipuello o ne
159_0120 re o kgopo le ho
159_0121 se o fihletse qeto eo
159_0122 bonwang le ho ya ka
159_0123 ho ya ka merabe moetlo
159_0124 wa bodumedi gospel o sa
159_0125 established diplomatic relations
159_0126 e ka hirisetsa khamphani ya
159_0127 le phumantso e ntlafetseng ya
159_0129 e sebeletsang e ikaraballang ho
159_0133 o ntshofaditsweng a na le
159_0134 ho buuwang ka yna e
159_0135 sa khiro se saennweng ke
159_0137 o qeta o be o
159_0138 sekete ya thelevishene e kwalehileng
159_0139 hangata ka ho nepahala le
159_0140 thesela mmadikotwana eo malekupa a
159_0143 ke tsosa dibata masene ha
159_0146 economic cooperation apec
159_0147 oriental orthodox churches
159_0148 ho ewp e be ba
159_0149 le ditswejane ho le mathisa
159_0157 eo ka menahano e tiileng
159_0158 mafosi o be o tshehetse
159_0159 dingaka di be di phethile
159_0161 phousetara e shebehe e le
159_0163 dikobo le ho mo busetsa
159_0165 human development index
159_0166 pope benedict
159_0167 tharo a b le c
159_0175 pusat statistik provisionally
159_0178 le sa kgetheng mofo ho
159_0187 north atlantic ocean
159_0194 current account deficit
159_0207 matjhabeng e ye e be
159_0208 tsejweng ka kgalaseng eo motaung
159_0215 lkhansele ya aforikaborwa ya diporofeshene
159_0216 peo eo a e jetseng
159_0221 soviet socialist republic
159_0225 a radieishene yuraniamo le thoriamo
159_0229 ho itshepa le ho ba
159_0235 mmadimpho siko ke re ho
159_0236 fumanehang sebakeng se bapatswang di
159_0240 zermelo fraenkel set
159_0242 ha re di bolellwe re
159_0245 ba e tjhaelwe monwang ke
159_0252 e le matahwa a mahlena
159_0258 ya ka sehloohong wa phethahatso
159_0259 moso ke se iphumane ke
159_0264 condensed matter physics
159_0272 ba tshwasehe kutlwisisong e mopatisane
159_0276 ba rutwe le ho rupelwa
159_0280 early middle ages
159_0283 d ho ikopanya le difedereishene
159_0284 ne ba itjella bolokwe ba
159_0285 ku tlwisiso e kgabane ya
159_0286 demokerasing e kgonang ho ipeha
159_0299 states presidential candidates
159_0303 tshekatsheko ya hae e paka
159_0306 paleng ee o ka re
159_0308 hard disk drives
159_0312 ho se ho le tjena
159_0314 java virtual machine
159_0322 e tswalang ho foforeha ha
159_0330 ikemisetse ho reupella le ho
159_0332 baromuwa ba ncop ba ka
159_0335 grammy award winners
159_0343 loreal age perfect ke ditlolo
159_0344 bukeng ya ac jordan e
159_0345 ya thitelo ha mantshele motaung
159_0353 married couples living
159_0357 butswe le ho butswa ke
159_0361 internal combustion engines
159_0363 national science foundation
159_0366 ba le nate boltong e
159_0369 o tjhele ya phediso ya
159_0371 human rights activists
159_0376 moscow state university
159_0380 eo o hlolang o e
159_0381 ho thujwa ho ba dikotwana
159_0384 sa bosuwehlooho ke se tjhesang
159_0385 a le holena la meutlwa
159_0390 valence bond theory
159_0391 le lequlwana la dinokwane le
159_0393 lebososelo le monaleo a tummeng
159_0399 na lepato le ka tswelang
159_0403 la ho potlaka ho ka
159_0404 le ha e le se
159_0405 ke bosotho nthwese kola sa
159_0406 le o sa kgeseng e
159_0409 baobab baobab or adonsonia digitata
159_0410 ne e fifaditswe ke mobu
159_0411 se e le lesupi ho
159_0415 castel sant angelo
159_0419 la tiiso ka e meile
159_0430 se qaqolohane ha se a
159_0431 ye a re o ka
159_0433 elected prime minister
159_0434 e ka ba ao e
159_0435 medieval islamic world
159_0436 ho nahana le ho amohela
159_0442 e tswang ho nac ho
159_0445 sa kgotsofalang la marenana le
159_0454 ya phano e behuweng e
159_0455 le yena o ne a
159_0458 e ka makotikoting le e
159_0459 chinese new year
159_0465 ba hatellwe ka ho tingwa
159_0467 ba bokgotsing ba ke ke
159_0469 american film actors
159_0471 wa emalahleni mof malatjie o
159_0476 jwalojwalo le ha ho le
159_0479 le bojuta le bokreste re
159_0480 le mekgatlong ya baserbetsi ho
159_0481 bapiswe le tshupamolato eo ho
159_0483 different ethnic groups
159_0486 a lora a haola meruemetala
159_0489 lero la morara le monyang
159_0491 eo o ne a lahlile
159_0493 ya mmileng e ne e
159_0494 ho bo nahala a na
159_0496 di ne di sa rerwa
159_0498 ba ath party
159_0500 british prime minister
159_0502 ha e sa le tjhatsi
159_0505 green coffee beans
159_0506 ho na le ho honyane
159_0513 lekotsi e kieng ya etshahala
159_0514 world s largest
159_0517 wakgahlwa ke lefiso la metsaneng
159_0524 ha o ka kgethelwa ho
159_0527 utswe ha ba qale leshano
159_0529 difounu le difekse le ho
159_0538 ho sebetsana le mathata a
159_0540 le maruo a terasete ya
159_0543 ke re ho ye ho
159_0547 ya basotho ho ne ho
159_0549 ba sa tswafe ho e
159_0551 studies and journalism ekasitana le
159_0552 di entswe ho na di
159_0557 pro football hall
159_0558 le maqhubu a radieishene sepakapakeng
159_0559 later middle ages
159_0561 shebe e be o seha
159_0569 di ne di phatsimakaka ho
159_0572 verifiable source proving
159_0573 parliamentary representative democratic
159_0577 e sa thekeseleng ntweng ya
159_0581 ka mahlong motsotso o molelele
159_0583 le ho se tsejwe ha
159_0585 o atlehile ho kgina tshwaetso
159_0587 hehehe ho re ho na
159_0590 ho eo ho itsweng ho
159_0594 ho hlometswe ho tlatlaptjwa ha
159_0597 le sisintsweng le rerilweng mohl
159_0600 makopanyi maemedi le mahlalosi ho
159_0604 ho itsebahatsa le ho utlwahatsa
159_0606 leruo le utswitsweng jj le
159_0607 ke ya di heleng ho
159_0616 le matheriale oo mohiruwa a
159_0617 lethathama la tlhekatlheko le ho
159_0618 ba ka iketsetsa meusiamo wa
159_0619 re ho etsahalang hantlentle na
159_0620 mofuthu ha o ne o
159_0622 o thusitseng o ne a
159_0623 e shweleng e ne e
159_0626 a e ngotseng le ho
159_0628 phethelwe ha ho thetheswa bohadi
159_0632 state university alumni
159_0633 wa lefi ho ya ka
159_0634 qale ho ebesela a ntjhafale
159_0635 ke ne ke re na
159_0636 sa madibase mo nyeka hotloha
159_0637 re be re phehisane ka
159_0638 ke ke a re ke
159_0640 ha ho na ntwa e
159_0643 mohlohlwa o rapame se a
159_0648 di iketlile di ja lekomo
159_0650 market prices estimated
159_0651 ne a sa halefe vmotsotso
159_0652 ha mothendari a ka phumola
159_0653 mopeleto le tshebe diso e
160_0001 le e qhwaelwang sefubeng kgau
160_0002 ha o a dumellwa ho
160_0003 memorandamo le articles of association
160_0004 o a pepeseha o a
160_0005 ya matarapane o ne a
160_0006 ne a bitsitse mmantsopa ie
160_0007 mo apese ka mapheo manong
160_0008 ho shatilefensetereng ha re tswaa
160_0009 sa fase ntja eo ya
160_0011 pedi borarong ya mebuso eo
160_0013 di ka nyoloha ha e
160_0015 ya ill e na le
160_0016 e thehilweng bodumeding le dihlopha
160_0017 ya referense eo o e
160_0021 ho ka iteangwang le ba
160_0023 aparetseng e ye e re
160_0027 a lekanang mahlakoreng a mabedi
160_0028 na ntwa e ka fetelletsang
160_0033 ekare re diphoqo ha re
160_0035 recent common ancestor
160_0036 ho ya ka pilir o
160_0039 nehawu le psa e le
160_0042 award winning authors
160_0043 ha e a kgotsosofala ngwaneso
160_0045 ho petha ho ya ka
160_0048 medicine price list mpl le
160_0049 di ne di sa susumeletswa
160_0050 a teetswe hare ke ditsietsi
160_0051 ya mahaeng le maphelo a
160_0052 ya pa role ya ho
160_0054 world trade organization
160_0057 e monyenyaneyena o ne a
160_0059 bahale ba furallwa kebasadi ho
160_0060 e lebi sang tlhalohanyong ya
160_0062 k h r mapenshenara le
160_0064 e tidinya ha engwa ka
160_0066 ka nqeng ya ho kwetelwa
160_0068 esele ke a o nyonya
160_0071 dikhabinete ho betla mapolanka ho
160_0072 mthethwa o ne a sa
160_0073 cup winners cup
160_0075 katlehong kgatelopele e ke ke
160_0076 leaho e ne e le
160_0079 mo re qa kgetlo la
160_0083 royal australian navy
160_0084 o feleheditsweng kemoya obatang le
160_0085 ba arohana mmileng o fetang
160_0087 ke re ha ke no
160_0088 ho tlolapele ha re sa
160_0089 bohloko ka ho fetisisa ke
160_0090 ba sa ntsaneng ba botsana
160_0092 ha se mara ha se
160_0094 mosadimoholo mmadiepollo o ne a
160_0095 my nou te doen staan
160_0096 a veke ho sa sejetswe
160_0097 ho natefelwa ke dingolwa e
160_0099 joint initiative on priority skills
160_0101 ha o hlajwe ke dihlong
160_0103 ntumella ha ke re o
160_0104 tshwaetswa ke hiv le aids
160_0105 mohloding le ha e le
160_0106 ka nate e sa tiyang
160_0107 r j r masiea e
160_0108 ba ne ba fetotswe ke
160_0109 northeastern united states
160_0110 di a dumellana mo mahano
160_0111 le ha e le lesobanyana
160_0112 rejisetara le sehalo di sebedisitswe
160_0113 president theodore roosevelt
160_0114 a sa tahwa o ne
160_0116 ho re na e be
160_0118 kenang toropong e ne e
160_0120 ya ka e duma ditshepe
160_0121 dithupello le ho tlatsetsa ditataisong
160_0122 le ho qadisa diprojeke ke
160_0123 ha ho ka ke ha
160_0124 ha o so ka o
160_0125 a sa tsebenthoeo a e
160_0126 o a bonahaletsa o ke
160_0127 oo ho wona o hlahisang
160_0128 e sootho e mabanta a
160_0129 ngola ka mongolo o makgethe
160_0132 ha o le manganganyanatjena ke
160_0133 ha ba le kgutso ka
160_0134 british east india
160_0135 a ho qeka le ho
160_0136 o ne a re file
160_0138 mo hauhela a re ho
160_0139 electron degeneracy pressure
160_0141 a fotse le ha ho
160_0142 phetwa e be mmohi o
160_0145 o ne a dutse ka
160_0146 na e fela o arabile
160_0148 rugby union team
160_0149 a o fe resiti e
160_0150 ba ya dikolong ba hlometse
160_0151 le dikopanong le dipitsong le
160_0152 ke tshepo ho aubuti thabang
160_0154 kantle e ne e le
160_0155 re a thaba ha ho
160_0156 e ba ho na le
160_0157 ho le ha e le
160_0158 sa tshepahaleng ke tshokelo e
160_0159 o ahlame o mo tonetse
160_0161 ha a ka a arabela
160_0162 e ye e be ka
160_0163 nbotsa ho re na ke
160_0164 saennweng le ho tempuwa ke
160_0165 dithoko di atisang ho ba
160_0169 ke ne ke ipona ke
160_0170 internet service provider
160_0171 didumatshwano le mepeletotshwano mahlalosonngwe malatodi
160_0172 le ananela botebong ba maikut
160_0173 la poraevete ke na dipuisanong
160_0174 hong ho dumella mmadi ho
160_0177 weleng mekgeng e hlalositsweng ka
160_0179 le ha ke na le
160_0180 national baseball hall
160_0181 ha ho ne ho itswe
160_0182 puseletso e se kenyel letsang
160_0183 hule pay as you earn
160_0184 leke ho mo nyokola ha
160_0185 ho se ho se na
160_0187 ka bomadimabe khampane ya boabiele
160_0189 ba ne ba le bafubedi
160_0191 be le tsamaisano le bili
160_0192 ke ne ke re ho
160_0193 be di mela manaka bo
160_0194 di ka be di thibetswe
160_0196 ho balehaempa ba mo lelekisa
160_0197 memorial park cemetery
160_0198 botoro le tjhisi mabejana difeme
160_0199 e ne e le bosiu
160_0200 a ne a le siyo
160_0201 a lekanyetsang ka ho ngolla
160_0203 intelsat nonsignatory user
160_0204 ho ntefa bokae ha ke
160_0205 re na ke a mo
160_0206 le lefubedu t w d
160_0208 a fetang le a sefefo
160_0209 nwabeleditse ba habile kalaneng ha
160_0211 o re ntaramane ee ya
160_0212 ba nyetseng ke mampetje ba
160_0213 ra o tlohela o sa
160_0215 ka botenya ho ya ka
160_0217 ya cashier e be o
160_0219 e le sephoko a kgelekenya
160_0220 be wa ba wa mo
160_0221 le ho se hlomphehe ha
160_0222 roman catholic priest
160_0223 failed verification date
160_0225 ba ho elellwa makgabane le
160_0228 t a ba a mo
160_0229 ka se tshwarwe ka ho
160_0230 canadian pacific railway
160_0231 balehang ho bebofaletsa motshwai ho
160_0234 ho hlatswa ditholwana le meroho
160_0235 mofubedu o phatsimang le ha
160_0236 alexander graham bell
160_0237 e sa otlolohang polokehong ya
160_0238 v v mmapelepele e ne
160_0240 ke ha a le haufiufi
160_0241 polish lithuanian commonwealth
160_0245 mafura peterole e nyoloha ka
160_0250 felehetsa ho kgutleha hlakoreng la
160_0253 ha e se e otla
160_0254 cricket world cup
160_0255 tlhapa e ne e sa
160_0257 e re nengneng a eme
160_0258 ba se ke ba nyantsha
160_0260 ke ke ya leshwa ke
160_0261 ke ke a ba a
160_0263 ha e ne e le
160_0264 le ka madungwadungwana ho ya
160_0266 e sa le e qheletswe
160_0267 profeshene e se e kgathile
160_0268 wa mautse ha dubeha ha
160_0269 eo ho buuwang ka yena
160_0271 hadiindaseteri ho arolwa ha diindaseteri
160_0274 re ye re sitele jehova
160_0275 batswadi ba ne ba tsebiswe
160_0276 sa ho vouta sedikeng sa
160_0278 re e se e le
160_0285 e ke be e rutile
160_0289 e le o rarahaneng ho
160_0291 a di utlwisisang le ho
160_0292 le kutlwisisano dihlotshwaneng ke se
160_0294 ka hanelwang ho ba le
160_0295 council for natural scientific professions
160_0300 ne a se a utlwetse
160_0305 cite journal title
160_0307 re re re qhwaolla kobo
160_0308 southern african development
160_0309 ya b le ya c
160_0310 lerumo ho kgabola kanono moela
160_0311 obitjhuari ka ha le ne
160_0324 ho ba ka hodimodimo lenaneng
160_0327 ke sa na boikgethelo ha
160_0330 ba reke dijole ho patalla
160_0333 million years ago
160_0335 tlhwekiso ya matlwana ke le
160_0336 naval air station
160_0337 re re ye wits ka
160_0338 ho registrar of animal improvement
160_0343 di fumanehe khomputeng ikopanye le
160_0348 makuleke kruger national park dinaheng
160_0350 ka letlotlo le siilweng ke
160_0352 na le ho kgaokg aoha
160_0353 kgolong ya ka le tshiung
160_0354 motsotswana ha e le difelekwane
160_0356 uke ichi ni san ji
160_0358 ha e le ee dihora
160_0359 qetel long ya boimana ba
160_0362 mokuru o se o sibile
160_0363 ba kgethetsweng ho ba diroki
160_0365 original game boy
160_0366 ha ba hlomphe mosuwe ya
160_0370 on financial awards pfa dinnete
160_0379 e ne e le senokwane
160_0384 ha ho na pilisi enjekeshene
160_0386 palestine liberation organization
160_0387 ke ke ba toboketswa ho
160_0388 united states capitol
160_0392 poraevete k h r ba
160_0393 ya bcm le ho hlaisa
160_0394 services development plan wsdp e
160_0396 na ho ne ho le
160_0397 ka ho re tselatshweu matebele
160_0403 ho nehelawe ka tataiso ho
160_0409 paris peace conference
160_0410 mo sehollake a motsholele maqa
160_0411 dipotongwane ho re tshiu di
160_0413 ba ka a ka tshababeatrice
160_0414 dumedise ka ho re dumelang
160_0415 le e atlehileng ho fihlellwa
160_0416 articles containing video
160_0417 kotopi le sebuweng ke ya
160_0419 ne a se a thotse
160_0420 batshosi ba tsohellang masimong esale
160_0423 sefifi sa phoofolo e shweleng
160_0429 lehlokwana le finnweng lefito o
160_0430 motsokapere o ne a na
160_0432 ho ruruha ha manonyeletso di
160_0434 disampole di nehwa ba osts
160_0438 major league record
160_0439 tshositse ka ho o bolaya
160_0442 e thehilweng ho nyehelo ho
160_0447 ka boholonyana o ne a
160_0449 le hodiswa le ke dillo
160_0450 o tlohelle ho tjha ntshi
160_0453 ne ke re o mo
160_0455 cape breton island
160_0456 ke eo o se a
160_0458 o ne a amahanngwe le
160_0460 ba thontsweng ke sacnasp professional
160_0461 minister margaret thatcher
160_0463 mashaeng empaha ho a ka
160_0464 bo bong le bo bong
160_0465 engwe ho na le ho
160_0467 sa tlhatlhobo le f ho
160_0470 ha ho tluwa mangolong a
160_0472 kansas city chiefs
160_0473 di fihlile mohwang e sa
160_0474 tsatsi le tjhabang le le
160_0478 ho ya dihela dikgala sware
160_0480 ha a hele a itlamele
160_0481 di ne di se na
160_0483 eo na o ne o
160_0484 ya ho hira ikopanyeng le
160_0485 ya mmampodi kgwaolla ditswakotleng jm
160_0487 helang le ho hlophisetsa pan
160_0494 re makau ke sebapadi sa
160_0495 le vii ho diswa ho
160_0502 bronze star medal
160_0508 fact date december
160_0509 toustu bisekiti le raske dinong
160_0511 ya ho ingodisetsa sephethephethe e
160_0512 ba dipatlisisomme a mo eletse
160_0513 qetella e le diqhwala ka
160_0515 sehlooho se sekasekwa le ho
160_0518 ho ya moketeng e ne
160_0524 ba a tsieleha ha ba
160_0530 prime number theorem
160_0533 ke ya html le ha
160_0535 a botona marong a ntshuwang
160_0537 mebaraka e bulehileng kgwebisano ka
160_0541 ho na le qhoku e
160_0545 canadian prime minister
160_0551 ho hlwekise khotone le h
160_0552 ka morero wa ho matlafatsa
160_0553 hlahlamela dithaba ha makgomo a
160_0556 leruo le utswitsweng jj le
160_0557 ke ya di heleng ho
160_0560 south china sea
160_0562 nyetsweng di ne di siile
160_0563 a rabaraba v o ipotsaka
160_0566 le matheriale oo mohiruwa a
160_0569 re ho etsahalang hantlentle na
160_0578 phethelwe ha ho thetheswa bohadi
160_0579 on o hlomphehileng ha kana
160_0582 state university alumni
160_0584 qale ho ebesela a ntjhafale
160_0585 ke ne ke re na
160_0587 re be re phehisane ka
160_0596 esita le ho ba le
160_0597 supa matstasi a ho qala
160_0598 di iketlile di ja lekomo
160_0599 la ka ke dudu re
160_0600 market prices estimated
160_0602 ha mothendari a ka phumola
160_0604 ho mphara ka mashano a
160_0605 ke re llang le bokolleng
160_0607 major professional sports
160_0611 united nations standard minimum rules
160_0616 federal trade commission
160_0620 nuclear power plants
160_0622 ba ka di lebellang ho
160_0628 native american culture
160_0629 united states senate
160_0631 ha ke re ke se
160_0633 ne a re o a
160_0636 ma ntswe ka boiqapelo bo
160_0637 rupella le ho kwetlisa ho
160_0640 monyako o sa notlelwa ho
160_0642 ho ya qhekella mofumahadi ke
160_0643 e olato e ne e
160_0645 o se o hlwele matsatsa
160_0649 sa leke ho mo nyokola
160_0651 di sa di bolaye di
160_0652 north american plate
160_0653 je mabele a matjha masimong
160_0655 e phethwe boramesebetsi ba ka
160_0656 ya dikarolwana le value matices
160_0657 o e ise ho lekgathe
160_0658 e sa ratweng ha ke
160_0660 ba re e mafi ha
160_0667 probability density function
161_0001 se o le ntata nnyeo
161_0003 le eo e hlonngweng ke
161_0004 ha e ba ho na
161_0007 ne ba sa di fumantshwe
161_0010 ne e le mpho ya
161_0011 e ne e se ka
161_0015 dipuisanong e ne e le
161_0016 o ikgothatsa ka ho re
161_0017 anc ha ba ne ba
161_0021 in die land wat die
161_0024 ho south african revenue service
161_0026 ho ba le seabo ha
161_0027 lehlwa ha le qhibidiha dithabeng
161_0029 a mebileng ha di bolawe
161_0031 di a mengwa ho thonya
161_0035 ya ho tiisetsa ditshaeno le
161_0036 diselefounu di ka utsuwa ho
161_0039 dilomo meru e kopaneng diphulana
161_0040 e a ke le duleng
161_0041 di a bela di a
161_0042 ho itshetleheng ho sa hlokeheng
161_0044 re ba hlalefile senase pakwa
161_0045 a borikgwe bo botsho kausu
161_0046 a robale ka dieta o
161_0049 ikgethileng dihlekehleke madiboho marokgo le
161_0050 a le lebeletse le ne
161_0051 notable examples include
161_0052 se jara boikarabello ba sena
161_0053 o se a ne a
161_0054 mo qhoqhang ho intlafatsa ho
161_0056 e kenngwang dikotikoting e pakwang
161_0059 le ho re ho ya
161_0061 mareo le mererong ya diprojekte
161_0065 ne re ka ra bitsetsa
161_0068 o ne a lapile ho
161_0069 ananelwang le ho tlotlwa dibakeng
161_0070 na o ne o a
161_0071 ha a na ho ka
161_0072 h tswala tjheleteng ya tsetetsweng
161_0074 ya kgohlong ka ha e
161_0075 serobe phiri e se e
161_0076 seqo o se ke wa
161_0077 san diego chargers
161_0078 ha o le paki o
161_0079 a sa o tlwaelang ho
161_0080 re sa natefetswe ho le
161_0082 lora a haola meruemetala ya
161_0083 la jse le ho rekisetsa
161_0084 a hlasetswe ke mohlakana wa
161_0086 states air force
161_0087 ho se ho fanwe ka
161_0088 dumelle le be le ele
161_0089 late bronze age
161_0090 ha di silafatswe ke ditshintshi
161_0093 ya kutlo hcps boenjinere ba
161_0096 prince edward island
161_0097 michigan state university
161_0098 strategic air command
161_0099 o lonngwe ke mokgodutswane ke
161_0102 free trade agreement
161_0105 world trade center
161_0108 phoso e tsamaya le mohatisi
161_0111 ho mo fa matl a
161_0112 persian gulf war
161_0113 ho na le ho kgaokg
161_0114 natural resources include
161_0115 maqephe a fuperweng ke patanta
161_0116 bonahetse tumellanong ya harare eo
161_0117 absa fnb nedbank a beyang
161_0121 ho ya ka diphapang na
161_0124 skweyiya jj ba dumellaneng le
161_0126 e ne e le disontaha
161_0127 konopetswenghantle e le onamatlapa a
161_0130 low earth orbit
161_0133 ke ba ba le kgaoho
161_0134 phethiso di na le nyehelo
161_0135 le nna ke le tjena
161_0136 behela ba mmokanetseng a kgutlisa
161_0139 ya poello ha o beeleditse
161_0141 o re re qhelele moketjana
161_0144 quantum field theories
161_0145 re itlamme ka boithaopi ho
161_0147 eo ke ikemiseditseng ho shwa
161_0148 ka ho teba le ho
161_0149 diindasteri demokrasi bokomonisi le bongangele
161_0154 buddhism
161_0156 bitswang long walk to freedom
161_0157 multi purpose community centres ke
161_0161 eo o sa tshwanelang ho
161_0163 tj hata ya tshe beletso
161_0164 o se a shwele dikweta
161_0165 science fiction novels
161_0167 e netwekeng ke mohokahanyi wa
161_0168 liberal arts colleges
161_0169 ka ekaba ho se ho
161_0170 shejulu e phatlaladitsweng koranteng ya
161_0172 ya sethethefatsi tjhefu ya khemikhale
161_0176 ho sa na le ho
161_0177 mathajwalo a kotlobane a bonela
161_0178 harvard university alumni
161_0179 bohla o ne a bohla
161_0181 united states secretary
161_0185 ba le ho se tsamaelane
161_0187 sekgopi o ka tshepela ho
161_0188 ho kenyelletswa le la keresemese
161_0191 president abraham lincoln
161_0194 di romelwe ho ya tjhaelwa
161_0197 le mtshwao a tshupo a
161_0200 mafura peterole e nyoloha ka
161_0202 a tshabehang a lefifi ho
161_0203 itlama ho se behe saps
161_0205 felehetsa ho kgutleha hlakoreng la
161_0209 cricket world cup
161_0210 tlhapa e ne e sa
161_0212 e re nengneng a eme
161_0214 ba bangata kamoo ho ka
161_0216 ke ke a ba a
161_0217 e lethwethwe o elellwise mokomishenara
161_0220 iswe ho ba baholo le
161_0221 e sa le e qheletswe
161_0222 profeshene e se e kgathile
161_0223 wa mautse ha dubeha ha
161_0228 ka ho nyaroha e e
161_0229 re ye re sitele jehova
161_0230 batswadi ba ne ba tsebiswe
161_0231 sa ho vouta sedikeng sa
161_0232 tadimile ka leihlola kaine ho
161_0234 na ie seoa se unang
161_0236 ha o qeta o be
161_0237 a bala le ho boha
161_0239 ha a na anyalwe a
161_0240 e ke be e rutile
161_0243 e ne e le nthho
161_0244 e le o rarahaneng ho
161_0245 bodileng matshwele a sollang a
161_0246 a di utlwisisang le ho
161_0247 le kutlwisisano dihlotshwaneng ke se
161_0249 ka hanelwang ho ba le
161_0251 dikhampaning dikoporasing le baleming ba
161_0252 ne di na le ho
161_0253 le ho seholla mmateboho habohloko
161_0255 ne a se a utlwetse
161_0262 re re re qhwaolla kobo
161_0263 southern african development
161_0265 lerumo ho kgabola kanono moela
161_0266 obitjhuari ka ha le ne
161_0281 a butswelana ka tholwana le
161_0288 million years ago
161_0290 tlhwekiso ya matlwana ke le
161_0291 naval air station
161_0292 re re ye wits ka
161_0293 ho registrar of animal improvement
161_0296 ba sireleditswe tlhekefetsong le tlontlollong
161_0299 ba a phehelwa dinama le
161_0300 east asian countries
161_0302 le ho phomosetsa bamemuwa ba
161_0303 makuleke kruger national park dinaheng
161_0306 a di botsang ka lewatle
161_0308 kgolong ya ka le tshiung
161_0311 uke ichi ni san ji
161_0320 original game boy
161_0321 ha ba hlomphe mosuwe ya
161_0325 on financial awards pfa dinnete
161_0331 ho se qose ha se
161_0341 palestine liberation organization
161_0343 united states capitol
161_0346 di batlisiswe le ho salwa
161_0347 poraevete k h r ba
161_0348 ya bcm le ho hlaisa
161_0351 na ho ne ho le
161_0354 dikoloing ho ya ka ho
161_0356 thonya bonkgetheng ba loketseng ho
161_0358 ho nehelawe ka tataiso ho
161_0359 ho okamelwa ke ditlelereke phethahatsong
161_0360 ba ne ba ye ba
161_0361 hlwauweng ka ho ya ka
161_0362 ho ka tsoselletsa mofuthu wa
161_0364 paris peace conference
161_0365 mo sehollake a motsholele maqa
161_0370 le e atlehileng ho fihlellwa
161_0371 articles containing video
161_0372 kotopi le sebuweng ke ya
161_0373 setshwantsho se se hlalosang neha
161_0375 batshosi ba tsohellang masimong esale
161_0378 sefifi sa phoofolo e shweleng
161_0381 cola le ditjhokolete di na
161_0384 lehlokwana le finnweng lefito o
161_0387 ho ruruha ha manonyeletso di
161_0388 european economic area
161_0389 disampole di nehwa ba osts
161_0391 atomic energy agency
161_0392 a se a sa tlwaela
161_0393 major league record
161_0394 tshositse ka ho o bolaya
161_0396 re le ne le le
161_0397 e thehilweng ho nyehelo ho
161_0401 o robetse a opelwa ke
161_0410 cape breton island
161_0414 e bapalwang ke motshireletsi wa
161_0416 minister margaret thatcher
161_0420 engwe ho na le ho
161_0422 sa tlhatlhobo le f ho
161_0423 e siuwang poleseteishene ke ya
161_0425 ha ho tluwa mangolong a
161_0427 kansas city chiefs
161_0428 di fihlile mohwang e sa
161_0431 states army air
161_0435 ha a hele a itlamele
161_0437 le sekgobo ho qhellwa ka
161_0440 ya mmampodi kgwaolla ditswakotleng jm
161_0441 south west england
161_0447 o patisaneng wa phumano ya
161_0450 le vii ho diswa ho
161_0451 ya eommae e be e
161_0456 le halofo ho isaho a
161_0457 bronze star medal
161_0459 le ojwa le sa le
161_0460 roman catholic monarchs
161_0463 fact date december
161_0464 toustu bisekiti le raske dinong
161_0468 qetella e le diqhwala ka
161_0469 eo a e sietseng rehauhetswe
161_0472 belehwa ha e ba ntshe
161_0477 kasefuthu le ka lekgetlo le
161_0478 potlolomente e sootho e mabanta
161_0483 ho tshwaetsa ho phatlalletseng ha
161_0485 prime number theorem
161_0488 ke ya html le ha
161_0490 a botona marong a ntshuwang
161_0491 monyenyaneyena o ne a enale
161_0492 mebaraka e bulehileng kgwebisano ka
161_0496 ho na le qhoku e
161_0497 a lomolwe ka lelomolo la
161_0506 ho hlwekise khotone le h
161_0514 a sa kgotsofatse tleleime ya
161_0515 south china sea
161_0516 ya phahello e lebelletswe ho
161_0519 se sebapallwa ke moraparapa wa
161_0525 mofuthu ha o ne o
161_0528 e shweleng e ne e
161_0529 aithunya ho ne ho sa
161_0531 a e ngotseng le ho
161_0533 phethelwe ha ho thetheswa bohadi
161_0536 e sa ntsane e le
161_0538 wa lefi ho ya ka
161_0540 ke ne ke re na
161_0544 hanyenyane e ne e se
161_0548 mohlohlwa o rapame se a
161_0552 supa matstasi a ho qala
161_0554 la ka ke dudu re
161_0555 market prices estimated
161_0557 ha mothendari a ka phumola
161_0561 e akaretsang le mokgahlelo wa
161_0563 le kgabisa ka bophatshwana ba
161_0565 ya boitsebiso ho thibela pepeso
161_0568 se ritetsweng ka oli ya
161_0570 ka hofetisisa e ne e
161_0573 ya seyalemoya le theleveshene di
161_0574 be le tshitiso bokamosong ba
161_0576 cite web title
161_0577 ba ka di lebellang ho
161_0578 a se a kgahlilwe ke
161_0579 dipereng le ho beiseng ka
161_0581 dihlahiswa ho pakela le ho
161_0585 wa ka e ne e
161_0586 ha ke re ke se
161_0590 mo tswetseng o a re
161_0597 ho ya qhekella mofumahadi ke
161_0599 eo o e filweng potsong
161_0601 ha e le kajeno lena
161_0602 weso na o se o
161_0609 new york stock
161_0612 ho itshepa le ho ba
161_0622 a o hlwang setha o
161_0627 e ahang e buang ka
161_0630 na haeno ha ba a
161_0631 o ne a se jala
161_0637 ya ho ya ho e
161_0638 le ho se tshwane ho
161_0652 e ne e sa re
161_0659 ba rutwe le ho rupelwa
161_0661 a se ke a ho
161_0665 o ka itahlelang lemeneng la
161_0666 d ho ikopanya le difedereishene
161_0669 demokerasing e kgonang ho ipeha
161_0673 lenaneo la ho pepa le
161_0676 mokgutshwanyane o mo tsalang disanthao
162_0001 a ka monyeha letlalong ka
162_0002 ne bo hlomola ho le
162_0003 ho ya ditameneng shu ha
162_0005 le mmamoruti ya mmoledi ke
162_0006 ba ka nthusang ho itholamorwalo
162_0007 ka ho ya moketjaneng ono
162_0008 le ha ho qaqisitswe ka
162_0009 o ke ke wa etsahala
162_0010 ya tsitsinngwa ke diheshana bomafisa
162_0011 mekotla ya mashala ka veneng
162_0014 etshweu e lebanta le letsho
162_0017 di ka qhalakanngwa le di
162_0018 ba chikano ya sireletsang le
162_0019 letona ka tumellano le letona
162_0020 khampani ya ba mmalwa e
162_0021 wena moetapele wa setjhaba le
162_0022 kgele a tsoha a tlola
162_0023 ya emia e na le
162_0027 le ho re kumela ka
162_0028 sa le ka madungwadungwa ke
162_0029 senyehileng e senya thaere ya
162_0030 e dumelletswe ho ka eketsa
162_0031 ha re ne re ilo
162_0032 le ho phuthollwa ka bo
162_0033 se di sebedisetsang ho kenyakenyana
162_0036 ba tsamaella ho ya boitshwarong
162_0037 ne a teane le ditshita
162_0038 public international law
162_0039 international criminal court
162_0040 nyamela ho ba ntidi ha
162_0041 hee ke re o nkgitlile
162_0042 mmetla o kgola o e
162_0044 united states coast
162_0045 le tjhaba le dikela ba
162_0046 ya tuma ka ho reketla
162_0047 ne e le e ke
162_0048 dipuo ho phatlalatsa le ho
162_0049 kgauhelo e ne e le
162_0050 israeli prime minister
162_0051 haebe o kile wa fumana
162_0052 ka dinkgo ho ya sedibeng
162_0053 sa rena le ho rena
162_0054 moro kgotla ha o okolwe
162_0055 ho se sireletsehe tshwaetsong ya
162_0056 o na le mosadi le
162_0057 ke yang ke ne ke
162_0058 le kwae ke motswako wa
162_0059 bofentefente ha ba sekhweshemetsa ba
162_0060 a le mahlomoleng a ho
162_0061 ba bangmme se kaba le
162_0062 eo ho bafuputsi ba ikgethileng
162_0063 se ke wa be o
162_0064 o ne a mo susumelletsa
162_0065 re thobela diponono di thobelwa
162_0066 le ho fepela basebedisi ba
162_0067 ba e lahlele lebokoseng la
162_0068 ho ba le dvt ba
162_0069 o shobile a o entsemotloutlwana
162_0070 le sireletswe le ho notlellwa
162_0071 ka hodimo ha ho tshwauwa
162_0072 la ho ya le ho
162_0073 di ne di sa mo
162_0074 sekgutshwane sa akha onte ya
162_0075 boitjaro ho tshepahala ha botsamaisi
162_0076 ke ne ke sa mmone
162_0077 se makatsang ke ho re
162_0078 ho nyaroha e e bo
162_0079 ke la dipoding o ne
162_0080 le kgelohang tokelong ya bohato
162_0081 e pakuweng ho otsjet ejiwe
162_0083 ya ka etsang mahlabisadihlong a
162_0084 central african republic
162_0086 kgamahaholo o neabona e lentho
162_0088 eo a qetileng matsatsitsatsi a
162_0089 ho tu ke sitwa ho
162_0090 ya mmokelli eo wa dikoloto
162_0091 ntlokgolo ya icd e pretoria
162_0092 faotsweng ab di na le
162_0093 ha o ne o re
162_0094 iv na ho na le
162_0095 e ka bolokwang e tswella
162_0096 o se a tsohella ha
162_0097 ya mmakoma a sa lobe
162_0098 a maholwanyane e be a
162_0100 a epa pitso ya ba
162_0101 digital signal processing
162_0102 le lengata ho ya ka
162_0103 letsema o ne a se
162_0104 le e qhwaelwang sefubeng kgau
162_0106 memorandamo le articles of association
162_0107 o a pepeseha o a
162_0110 mo apese ka mapheo manong
162_0112 sa fase ntja eo ya
162_0113 se omeletseng se sa fumaneng
162_0114 pedi borarong ya mebuso eo
162_0115 le ho lokisetsa ho tsebahatsa
162_0116 di ka nyoloha ha e
162_0117 sekametseng ho tshabiseng ka ho
162_0118 ya ill e na le
162_0120 ya referense eo o e
162_0121 ho re ba re kwetletse
162_0122 ho ya bosoleng ho ya
162_0123 deedsweb ka ha ho na
162_0125 ba re ke ho qetello
162_0126 aparetseng e ye e re
162_0127 ya momahanyo ya dikgokahanyo le
162_0128 a se hlokang bophelong ba
162_0129 sa ka ka ba le
162_0130 a lekanang mahlakoreng a mabedi
162_0132 dihotele dikhemisi le dikereke a
162_0133 ka ho ya ka minerale
162_0134 a se a boletse a
162_0136 ekare re diphoqo ha re
162_0137 ke diyanokeng di bapile le
162_0138 recent common ancestor
162_0139 ho ya ka pilir o
162_0140 mmasepala o ne a sisintse
162_0141 dithunya le ditanka le difofane
162_0142 nehawu le psa e le
162_0143 e se mohlokomedi ya ka
162_0144 ya mohoma sa basa ya
162_0145 award winning authors
162_0146 ha e a kgotsosofala ngwaneso
162_0147 a ka masakaneng a ngolwe
162_0149 treaty organization nato
162_0150 ha e re e a
162_0152 di ne di sa susumeletswa
162_0153 a teetswe hare ke ditsietsi
162_0154 ya mahaeng le maphelo a
162_0155 ya pa role ya ho
162_0156 di rarollwa o se ke
162_0157 world trade organization
162_0158 sethetsabadisana ha ho bolelwa banana
162_0159 le dipelaelo ka yonamabapi le
162_0160 e monyenyaneyena o ne a
162_0161 ho se be lengwana ya
162_0162 bahale ba furallwa kebasadi ho
162_0163 e lebi sang tlhalohanyong ya
162_0164 ako lese ho itshela ka
162_0165 k h r mapenshenara le
162_0166 toko ha o mamele se
162_0167 e tidinya ha engwa ka
162_0168 o a thatafallwa ha a
162_0169 ka nqeng ya ho kwetelwa
162_0171 esele ke a o nyonya
162_0175 mthethwa o ne a sa
162_0176 cup winners cup
162_0177 ha o sa re natsa
162_0178 katlehong kgatelopele e ke ke
162_0181 o ye a be le
162_0183 nolofatsa le ha ho le
162_0185 sa sebetseng iteanye le ba
162_0186 royal australian navy
162_0187 o feleheditsweng kemoya obatang le
162_0188 ba arohana mmileng o fetang
162_0192 bohloko ka ho fetisisa ke
162_0193 ba sa ntsaneng ba botsana
162_0194 ke sa notlela o sa
162_0195 ha se mara ha se
162_0196 ya hatelletsweng a se a
162_0197 mosadimoholo mmadiepollo o ne a
162_0198 my nou te doen staan
162_0199 a veke ho sa sejetswe
162_0200 ho natefelwa ke dingolwa e
162_0201 e so arabelwe ka ho
162_0202 joint initiative on priority skills
162_0203 e a amoheleha ya ho
162_0204 ha o hlajwe ke dihlong
162_0206 ntumella ha ke re o
162_0207 tshwaetswa ke hiv le aids
162_0208 mohloding le ha e le
162_0209 ka nate e sa tiyang
162_0210 r j r masiea e
162_0211 ba ne ba fetotswe ke
162_0212 northeastern united states
162_0213 di a dumellana mo mahano
162_0214 le ha e le lesobanyana
162_0215 rejisetara le sehalo di sebedisitswe
162_0216 president theodore roosevelt
162_0217 a sa tahwa o ne
162_0219 ho re na e be
162_0220 balekane ba o r tambo
162_0222 mathakang ba rongwa ba hlatswakang
162_0225 le ho qadisa diprojeke ke
162_0226 ha ho ka ke ha
162_0228 a sa tsebenthoeo a e
162_0229 o a bonahaletsa o ke
162_0230 oo ho wona o hlahisang
162_0231 e sootho e mabanta a
162_0232 ngola ka mongolo o makgethe
162_0234 a ho kholomo a le
162_0239 o ne a re file
162_0241 mo hauhela a re ho
162_0242 electron degeneracy pressure
162_0243 e e ka re ke
162_0244 a fotse le ha ho
162_0245 phetwa e be mmohi o
162_0247 mosha o ne a ba
162_0248 o ne a dutse ka
162_0249 na e fela o arabile
162_0251 rugby union team
162_0253 ba ya dikolong ba hlometse
162_0254 le dikopanong le dipitsong le
162_0255 ke tshepo ho aubuti thabang
162_0256 le ho tsoha o tsohile
162_0257 kantle e ne e le
162_0259 e ba ho na le
162_0261 sa tshepahaleng ke tshokelo e
162_0262 o ahlame o mo tonetse
162_0263 a timellwang le ke ho
162_0264 ha a ka a arabela
162_0265 e ye e be ka
162_0266 nbotsa ho re na ke
162_0267 saennweng le ho tempuwa ke
162_0269 tswelapele ho tobana le dipephetso
162_0272 ke ne ke ipona ke
162_0273 internet service provider
162_0274 didumatshwano le mepeletotshwano mahlalosonngwe malatodi
162_0276 la poraevete ke na dipuisanong
162_0277 hong ho dumella mmadi ho
162_0278 o e na le letshollo
162_0279 ha e sa le a
162_0280 weleng mekgeng e hlalositsweng ka
162_0281 dikoduwa le matsholo a ho
162_0282 le ha ke na le
162_0284 ha ho ne ho itswe
162_0285 puseletso e se kenyel letsang
162_0286 hule pay as you earn
162_0287 leke ho mo nyokola ha
162_0289 b le ho ya c
162_0290 ka bomadimabe khampane ya boabiele
162_0292 ba ne ba le bafubedi
162_0293 ha a mo kgalemella mekgwanyana
162_0297 di ka be di thibetswe
162_0299 ho balehaempa ba mo lelekisa
162_0300 memorial park cemetery
162_0301 botoro le tjhisi mabejana difeme
162_0302 e ne e le bosiu
162_0303 a ne a le siyo
162_0306 intelsat nonsignatory user
162_0308 re na ke a mo
162_0309 le lefubedu t w d
162_0310 la botahwa le se le
162_0312 nwabeleditse ba habile kalaneng ha
162_0315 ba nyetseng ke mampetje ba
162_0316 ra o tlohela o sa
162_0317 wa tsoseletso ya boitshwaro o
162_0318 ka botenya ho ya ka
162_0320 ya cashier e be o
162_0321 re ha o sa mo
162_0323 be wa ba wa mo
162_0324 le ho se hlomphehe ha
162_0325 roman catholic priest
162_0326 failed verification date
162_0328 ba ho elellwa makgabane le
162_0329 la nteka la nkenya ditabeng
162_0330 ka ho re o mo
162_0331 t a ba a mo
162_0332 ka se tshwarwe ka ho
162_0333 canadian pacific railway
162_0334 balehang ho bebofaletsa motshwai ho
162_0335 ke ne ke sa ruteha
162_0336 re ditaaso di tshela mmila
162_0337 ho hlatswa ditholwana le meroho
162_0338 mofubedu o phatsimang le ha
162_0339 alexander graham bell
162_0340 e sa otlolohang polokehong ya
162_0341 v v mmapelepele e ne
162_0342 theotsweng ke moadimi le ho
162_0343 ke ha a le haufiufi
162_0344 polish lithuanian commonwealth
162_0345 ruuwa le ho laolwa ka
162_0347 o ne a kgannwa ke
162_0348 arohana tjeee se e le
162_0349 tlilo kopa mohope wa metsi
162_0351 mamelang ithuteng ho ithaopola ho
162_0353 le ho ba yuropa le
162_0354 wa lerama la motswala wa
162_0355 o hlatsa le ha o
162_0356 natural history museum
162_0357 amino acid sequence
162_0358 tantetswe ka mabota a malelele
162_0359 be a se a qwaketsana
162_0360 o moseho mawatle mmekgaitsedi ya
162_0362 be o di sebeditse bekeng
162_0364 kutlo e bakilweng ke lerata
162_0366 ratane mmebadisana ba ne ba
162_0367 le ha ho lekwa ho
162_0368 mbm ditso di ka una
162_0369 matlalo a dinakedi le a
162_0370 eo o e utlwisisang o
162_0373 a ne a hlokahelletswe ke
162_0375 wa mantlha wa tlhekelo ya
162_0378 ke ne ke sa e
162_0379 a ko ntlisetse panana e
162_0380 wa karaburetso o fuperweng meleng
162_0381 a sa le monnyane dilemong
162_0382 san pedro sula
162_0385 eo ke e hopolang ha
162_0387 elite group included
162_0388 le se ke la nahana
162_0389 o ne a thuisa se
162_0390 irish free state
162_0391 gross state product
162_0392 le phapanyetsano ya lesedi ho
162_0393 se a tsofetse a le
162_0394 re ne re qala ho
162_0396 wa ka o se ahlokofaditse
162_0397 ka ha ba felletswe ke
162_0398 german democratic republic
162_0399 wa ho tebisa le ho
162_0403 a nanabela lebokoso le tshwereng
162_0404 o ela ho ya tshedisa
162_0405 a le leqenyana ka bokgutshwanyane
162_0407 le meqoqong ya botswalle ha
162_0408 ne ke se sengangele a
162_0409 kgethilweng ya bamamedi ba habilweng
162_0410 sa benkeleng la ditshepe le
162_0411 npos le ha ho le
162_0412 marangrang a kgokano le tshebedisano
162_0413 ho phumula le ho bentsha
162_0415 e lokelaho ntlisetsa ngwetsi le
162_0416 o ie thabong o a
162_0417 social democratic parties
162_0418 bo nolofatswa ke ho ba
162_0420 mo rekele masela le tshwele
162_0424 la tahi o utlwela ka
162_0425 e ba ho se ho
162_0426 van der waals
162_0430 ha o le mokapotene wa
162_0431 ha re kwaleng mmaraka wa
162_0432 ya mo sikarong le ho
162_0433 ba ka ha ke sa
162_0434 ya ho kgethammabotle wa mautse
162_0435 ka a sekgopisehe o se
162_0436 opereitara ya seteishene le d
162_0437 popeho ya ditemana e nepahetse
162_0438 community based natural resource management
162_0439 e ntenang ka ho fetisisa
162_0440 second vatican council
162_0441 ke toro eo ke ikemiseditseng
162_0442 orange free state
162_0443 o e fuweng ho tshwaya
162_0444 pheleu v o ne a
162_0445 e meng ya bohlokwa e
162_0446 eo ho ka kgelohwang ho
162_0447 e a tsitsipana e honyele
162_0448 ha o se o ingodisitse
162_0449 le ha di sa utlwisisehe
162_0450 british royal navy
162_0451 ha o ka tlohella ho
162_0452 ha a ne a na
162_0453 di phahamiswe le ho ntshetswa
162_0454 e ka letlwepe la masumuathebotsho
162_0456 ha bo yo ha ho
162_0457 bo weso ka ho ja
162_0459 e lohothwang temaneng ya i
162_0460 second boer war
162_0462 o bontsha bopaki ba setaele
162_0463 ne di mathile mantswenga hlahlalebajwadi
162_0464 ya mmuni ya ho bokelletsa
162_0465 le ditlontlollo re ka phelahamonate
162_0466 momahano cohesion ketso ya ho
162_0467 phupung ka ha o ne
162_0469 mosi o ka kubellang ho
162_0470 poere ya kheri matswai a
162_0471 a kgolwao potile le ha
162_0472 wa ilo wela matjoing kwana
162_0473 e ne e le maloma
162_0474 setshelo a ke ke a
162_0475 e potlakileng ya tlokotsi ho
162_0476 king james version
162_0477 ha ho na le ho
162_0479 ya ipolelang o saenne ke
162_0480 ne e sa nowe ka
162_0482 eo ba e jeleng ao
162_0484 hakala sa mo qhautsa ka
162_0485 ba ratang papadi ya bolo
162_0487 ya mokato wa moaho oo
162_0488 following table shows
162_0489 ba habile kalaneng ha ba
162_0490 boston red sox
162_0491 bokolone le apareteite a bakile
162_0492 ya dikhampani e nkilweng ke
162_0493 eo ya diflete le c
162_0494 ha ho se ho ngangisanwe
162_0495 ka a tadimang e le
162_0496 o ke ke wa tshwengwa
162_0497 lomahanya meno e le ka
162_0498 qojwa ke ho re a
162_0500 ba mo tsebileng e le
162_0502 ho ya ka tshisinyo ho
162_0503 eknisheneng le ha e be
162_0504 fetolela ho e na le
162_0505 coptic orthodox church
162_0506 na ke ya mannte le
162_0507 e be e be mohlankanyana
162_0508 vene ho ne ho le
162_0509 e momohaneng e lebisang tlhalohanyong
162_0511 bo a raroloha ho fihlwa
162_0512 o mosweu le botala ha
162_0513 ho bokella le ho hlophisa
162_0515 metsebetsi o ne o ka
162_0516 thato ya tshwene terene e
162_0519 designated service provider dsp dsp
162_0522 o ne a tlohile matatilele
162_0524 ne ke thothomela ke tshohile
162_0526 lona e se ka diketso
162_0527 ho se ho fetile beke
162_0528 le monyetla wa ho ba
162_0529 le dierekisi cauliflower le broccoli
162_0531 ya fihlileng a lahlela lesapo
162_0533 ha se ditlhong le manyofonyofoseroki
162_0534 ka ha ho lebeletswe ho
162_0536 ho thwenge atile le ho
162_0537 ya ho kgothalletsa dipatlisiso e
162_0538 ka re mopheti o ne
162_0539 e ne e fifetse ke
162_0540 a seke a ikobela boitlamo
162_0541 ka bolwetse bo sa foleng
162_0543 tjhehile e ne e le
162_0544 o haellwa ke kutlwi siso
162_0546 dulellane le ho inanatha ha
162_0547 o ie ditsietsing o ie
162_0548 ya akademiki ya learnership ka
162_0549 sa dibasari ka ho ya
162_0550 kathata le ha baseba efuwa
162_0552 semeremere le tshea ke tene
162_0553 le kgotsofalo ya mosebeletsuwa le
162_0554 hleneng ke labohlano ho na
162_0555 ka matjeke a se a
162_0556 a jelle kgwebeleng le ho
162_0557 ne ke le sefofu ke
162_0559 se e hlomamisitse di nlb
162_0560 e sebedisitsweng metareng wa dikarata
162_0561 ho ya ka bothaka ba
162_0562 ya bohlwela le bonokwane bo
162_0564 ka mokgowa oo ntlafalo e
162_0567 unesco world heritage
162_0568 ya dipalekgutshwe ke ha ba
162_0569 utlwe ntlhakemo ya ka tabeng
162_0570 new york jets
162_0571 bosemorafe le sa kgetholleng ka
162_0572 middle high german
162_0573 o ye a re tselakgolo
162_0574 bolela haebe o kile wa
162_0576 ke ho ikwetlisa le ho
162_0578 ho re ha o a
162_0580 o ne a sa kgathalle
162_0581 ha o ne o ka
162_0582 ha o nthate o mpa
162_0583 ho diphaka ho dihlathe difubeng
162_0584 united states national
162_0585 pikoko ka moaparo o lahlilemaharaswanyana
162_0587 le baetapele a re qaleng
162_0588 e o lemosa ka ditleleime
162_0589 e ya nahanelwa leanong la
162_0590 erekaha a ne a sa
162_0591 nebula award winning
162_0593 mies van der
162_0596 motsaneng wa menkgwaneng ho se
162_0597 supang qotso di a bulwa
162_0598 sa a ha se ame
162_0599 e balletsweng e tlama letswalo
162_0600 ya makgiseterata ya kagisohape le
162_0601 ha o ka wa mpha
162_0602 na le boikarabelo ba ho
162_0603 states presidential candidates
162_0604 ka ho ya ka le
162_0607 tshekatsheko ya hae e paka
162_0608 ba se ke ba di
162_0609 lofe a ka hlolehang ho
162_0610 paleng ee o ka re
162_0611 sehlahla ke phetho ke tu
162_0612 hard disk drives
162_0613 le leamanyi o be o
162_0614 ke ho kgahlisa baditjhaba ka
162_0615 e le wa semanyamanyane o
162_0616 ho se ho le tjena
162_0617 union member states
162_0618 java virtual machine
162_0619 ho underwriter ho ya ka
162_0620 ho thuswa ho netefatsa ntlafatso
162_0621 ba le utswe ba le
162_0622 eo o ka e tsamaisang
162_0623 indian national congress
162_0625 seo ke lekang ho se
162_0626 e tswalang ho foforeha ha
162_0627 le lekgetho le o phumaneho
162_0631 di ka o hapisa moqhaka
162_0634 ikemisetse ho reupella le ho
162_0636 baromuwa ba ncop ba ka
162_0639 grammy award winners
162_0640 o tle o se ka
162_0641 ba hlophisang dimmapa le mahlasedinyana
162_0642 o be o se o
162_0643 tlhokomeloi ya boalosi lehaeng la
162_0645 a itjhebetse mejo lemmethe wa
162_0646 o ne aikemiseditse ho ya
162_0647 loreal age perfect ke ditlolo
162_0648 bukeng ya ac jordan e
162_0649 ya thitelo ha mantshele motaung
162_0651 la peete le ne le
162_0652 ba na le lebenkele le
162_0653 efeng ke ha baqolotsi ba
162_0654 ho ba la tahlehelo ya
162_0655 o ne a na ie
162_0656 o re ke dikwata dibusenga
162_0657 married couples living
162_0658 ho fokollwa ke boitswaro ho
162_0660 eo a se a kgutsitse
162_0661 butswe le ho butswa ke
162_0662 hlokomedisa ka bobe le bokgopo
163_0001 tswetsweng ka ntle ho lenyalo
163_0004 ke sekgukguni a ne a
163_0006 new economic policy
163_0007 dikontrakeng ditshupamelatong ditjhekeng mangolong a
163_0009 ke rg hlohong o na
163_0010 ho hloho ya yuniti ya
163_0011 a se ke a ya
163_0014 letsoho la ka le ruruhile
163_0015 ndoh le na le dilekane
163_0016 law enforcement agencies
163_0017 ditlhoka furu e sa silwang
163_0020 european free trade
163_0021 a le b le c
163_0023 amino acid sequences
163_0027 ba dumetse ho se lefise
163_0028 ya ditameneng shu ha di
163_0029 ya regulatory inpact assessment ria
163_0032 table mountain e apesitsweng ke
163_0033 ba tshehang ba keketeka ha
163_0034 le ho tloswa ha matlakala
163_0035 khoto ya biri ka boholwanyane
163_0036 seafrikanse din e di le
163_0038 latin american countries
163_0040 ba le programa ya ho
163_0042 a re qiti maphethelong a
163_0046 ditokomane theepa e sebedisetswang ho
163_0048 phaphama ke ha a ne
163_0052 ha e se ho ntumedisa
163_0055 ke sa e hlalohanye ho
163_0057 ba e sebedisang ba fuwa
163_0061 ne e se ka mofetakatsela
163_0062 le ha dihlakanahloohwana di ne
163_0066 sehang terata e meutlwa e
163_0069 ririanya kameriri yare ha lelakabe
163_0070 le bareki le ho nehela
163_0072 parreira le dibapadi ka botsona
163_0074 sisa se hlahiswang ha ho
163_0078 ding ke be ke ipotse
163_0079 ba ne ba tlasala ba
163_0082 palestinian national authority
163_0084 television shows set
163_0086 ka ha o fetotswe melawana
163_0089 laka la ka la nomoruweng
163_0093 kereiting ya borobong ha a
163_0096 ha re mpeng re di
163_0097 ho phahamisa boemo ba profeshene
163_0105 o ka hla wa wela
163_0106 eo ho ka ikgethelwang ho
163_0108 thabohadi medidietsane le pitiki ya
163_0109 mehopolo le dintlha tse e
163_0110 kenngwe melaong e nseng e
163_0111 cambridge university press
163_0112 ne e se e nyeunya
163_0113 ha ho tluwa tabeng ya
163_0114 o senatla ha ke re
163_0116 kopela tshwarelo o se o
163_0117 new zealand english
163_0118 na le kgahla ho seipati
163_0119 kgolwao potile le ha rangwanao
163_0120 ka ho shapuwa ke e
163_0121 ha mohatsaka a ne a
163_0122 san francisco giants
163_0123 le khroumu letsopa lehlabathe le
163_0124 e betsetswa ka fensetere a
163_0126 ke ke a ba le
163_0127 ne a sa nepa ke
163_0128 kopi e tiiseleditsweng ya id
163_0129 football league teams
163_0130 ha ho qellwane ke masiasiane
163_0131 sekepe sa ho tshwasa ditlhapi
163_0132 ha a ne a ya
163_0133 ya fumanang di ke ke
163_0134 le ho adoptha ho itholla
163_0135 ka ho ya ka diafidaviti
163_0138 a ja ha ke kgore
163_0140 ka dikhanselara le ho ba
163_0143 se ka tshwarwang ka menwana
163_0145 ya ho sutha mokgweng wa
163_0146 ho kwadiaka ho hlakana a
163_0150 vicky strydom o tshepisitse ho
163_0151 ha le se le beuwe
163_0153 ao mohlahlobuwa a nehelaneng ka
163_0154 ba mo rahakaka molatoane o
163_0157 hlalositsweng ho tjhata ya mahlatsipa
163_0158 mmonang ha a se a
163_0160 bannga ba mapolasi le basebeletsi
163_0161 feela leha ho le jwalo
163_0162 two umthetho wa se tjele
163_0163 sydney opera house
163_0166 kamoo o nwang dinotahi le
163_0170 homo phatsa o ileammeha ditlhakatse
163_0173 le kgonwe ho fihlelwabakeng sa
163_0175 jwaleka ha ho hlalosetswe mohato
163_0180 ho robala ke ho fetoha
163_0181 e ka ba nyane hakae
163_0182 e bmosiuwa ke mohlahlami boreneng
163_0184 ekare ke a iketsisa ha
163_0185 ha e ke e binwa
163_0188 microwave background radiation
163_0191 independent media diversity trust ha
163_0193 ntjha le diphetolo ngodisong e
163_0194 tlisitsweng ke bokoloniale aparteite le
163_0195 ho ya dikopanong le disimphosiamong
163_0196 nkga a re phu ke
163_0197 science fiction fandom
163_0202 ka mahahapa tlatlapo ya ditsha
163_0204 le ho sireletsa lehlakore la
163_0206 founung botoloki ba founu bo
163_0207 di lekole kgafetsa re lokise
163_0208 le ho ba nolofaletsa ho
163_0209 ne a hloriswa kehlooho e
163_0210 ka disutu o ne a
163_0212 di hlaphohetsweng ba ne ba
163_0217 ho nnetefatsa lekunutu la molli
163_0218 ba dikapeso ho ba diporofeshenale
163_0224 ha o se o fihletse
163_0225 qatile mohatla kobo di fokaela
163_0229 gold medal recipients
163_0230 numeric character references
163_0234 eleng pharela le ha ho
163_0235 molaong melawaneng le molaong o
163_0236 tlelapo ya lantjhe b o
163_0237 tjheseho ya ho ka di
163_0239 dipatlisisong a ka bitsa dipaki
163_0240 warring states period
163_0242 di utlwang di na le
163_0243 a ananelwang ke ldab le
163_0244 mmamesa poeyana re senotswe re
163_0245 ho natefisa le ho hatella
163_0247 ke ne ke sa kgolwe
163_0248 a phakisa ho o nyahlatsa
163_0249 makotofa a tjhesang ke a
163_0250 le utlwisisana a ka le
163_0252 lebitla ee ho ne ho
163_0253 se amoha tlokola se e
163_0254 national football league
163_0255 le ya ho ya ho
163_0256 ne a ka feresa le
163_0257 ya metara wa karata le
163_0258 shebuwang le nomoro ya ya
163_0261 tlala morolo ha e le
163_0262 lene le sa thapiswake boikaketsi
163_0263 ha ho a loka ha
163_0267 o se ke wa ya
163_0268 american film institute
163_0269 charles sanders peirce
163_0270 ho utsuwa mabenkeleng a ka
163_0271 feleheditsweng kemoya obatang le ho
163_0272 ho qoswa ha mokhomishenara wa
163_0273 president lyndon b
163_0274 nyalle thollo bafokeng ba mo
163_0275 banna anthe perekisi e monate
163_0276 fixed point theorem
163_0278 ao aneng a ka ba
163_0279 ka meferefere ha ho se
163_0280 wa sejapane ho ne ho
163_0281 los angeles times
163_0282 monene ha le ne le
163_0283 sa kgahlwe ke morwetsana o
163_0284 potlakileng le o sebetsehang o
163_0285 international criminal tribunal
163_0286 qobe le ho nena dinyehelo
163_0287 mafose dibini tsekgolodi ne di
163_0288 re ka ra iketsa marematlou
163_0289 e ka beng e sa
163_0291 ba metseng eo eseng ya
163_0292 hwa jewa dikuku le nama
163_0293 bo kgile ka dikgopo le
163_0294 ba ya re tlole ka
163_0296 d mohwanto wa bakganni ba
163_0297 hello world program
163_0298 a re botsietsi ba inehele
163_0302 tu ebile ha ho sa
163_0303 saena ho se mo amohe
163_0304 helang ha e sa le
163_0305 ne e le ya ho
163_0306 di se sebetswe ka le
163_0307 kgoho e tshwerwe ke mokoeyo
163_0309 makubetso le ho ja ho
163_0310 letootong le sa kgaotseng la
163_0311 eo ya tedu di putswa
163_0312 o ne a hlahafetse ha
163_0317 ke ne ke hloname ke
163_0318 o ne a hlodiya ramaqiti
163_0319 re le ha e ne
163_0320 occupied cypriot area
163_0321 digital equipment corporation
163_0323 sa utlweng ditsebeng le ba
163_0324 ha ho le hongata ho
163_0326 le e governance e learning
163_0327 bo sa amoheleheng le ho
163_0331 o hlekefetswa ka ho shatjwa
163_0335 mmata le sa tshelweng ke
163_0336 ba ka susumetswa ho ya
163_0337 high school alumni
163_0340 e ke ke ya inkelwaka
163_0345 national football team
163_0347 le ha e le lefe
163_0348 thelevesheneng le seyalemoyeng mananeoa behelwa
163_0350 ngwananyana waseithati ya tshepileng ho
163_0351 e totobe tseng sebopehong sa
163_0354 ba monyetleng wa ho hahlamelwa
163_0355 jwala o mmitsa kgowanatshwana lejakane
163_0356 mahloko a kgaello ya ayodine
163_0359 battery park city
163_0361 ke hle ke o jwetse
163_0362 ke futswela bohobe ka menyepetsi
163_0363 ke enwa o se a
163_0364 a ya ha malomae ho
163_0365 russian orthodox church
163_0366 o ne o theosa eo
163_0369 gravitational potential energy
163_0370 ne a na le bahlankana
163_0371 le ho se latelwe ha
163_0372 ka online lefatsheng lohle ka
163_0375 party united states
163_0376 eo nalane le jokorafi di
163_0378 geologic time scale
163_0381 tb e tsohileng ba ka
163_0382 operation enduring freedom
163_0383 mmathulare hammoho le qaka eo
163_0384 tlalang le ha ho le
163_0385 sa kgotsofatseng ya cjs ha
163_0386 a ho enta le ho
163_0387 states district court
163_0388 united states house
163_0390 e tsamaelane e le ho
163_0391 tswekere ya illovo e tshweu
163_0393 le ha ho se ho
163_0394 ke se sengangele a ka
163_0396 box office success
163_0397 ho borithane ho ba ka
163_0398 ke iphetola setshehisa sa rammolotsi
163_0399 re o fiela phaposi ya
163_0400 le ke le nthuse ho
163_0401 united states supreme
163_0402 hla a ala leleme phate
163_0404 moetsi ketso moetsuwa katoloso jj
163_0407 na le matla a ho
163_0408 ke tjhefo e kwaeng e
163_0409 ha o re re bitsetse
163_0410 a thupelo diphetolelong le tlhaolong
163_0412 ya bokenadipakeng ya tonakgolo e
163_0413 bakae ba amehang tsamaisong ya
163_0414 president franklin
163_0415 o sa qoqweng ke dipapiso
163_0416 e sa nepahalang e sefuwe
163_0417 o se a mo kopetswe
163_0418 re tsho ho ne ho
163_0421 o ithetsa ka tsiemokopu e
163_0424 le sa le letjha ho
163_0425 ne a futsitse lebitsola haehobanee
163_0427 ka ha ho bontshitswe tekodisiksong
163_0428 a ka wa phethisa ka
163_0429 greenhouse gas emissions
163_0430 yom kippur war
163_0432 states coast guard
163_0433 polakwang dihekeng le mamating a
163_0435 ho thweng ke hotsitsi eo
163_0436 ke ikutlwa ke imolohile moyeng
163_0437 kgotsa mmamoleko ha se dingwetsi
163_0438 a feheletsana ba a ithoka
163_0441 le ka mohla o le
163_0442 ne ho e na le
163_0444 dihlekehleke madiboho marokgo le metjhophoro
163_0447 letlaila le ho tlaila moreneng
163_0450 a ne a hanela monyaduwa
163_0451 ya boingodiso e ipitsang ka
163_0454 ke ne ke safufulelwa ho
163_0455 mabothobotho a bonojana bo tsotwang
163_0456 ho santaco re ke ke
163_0457 ekasita le ho nyediswa ke
163_0458 billion years ago
163_0460 ya ka ka kglofalo e
163_0465 o amohetsweng ka ho qoholleha
163_0466 adelaide tambo o ne a
163_0467 eo re mo tswetseng o
163_0468 se e le wa semanyamanyane
163_0469 supa ku tlwisiso e kgabane
163_0473 thusong e arabelang le e
163_0474 o ne a pudukane ho
163_0477 ho hlahlobisa le ho ntjhafatsa
163_0483 ya ho potlakisa kgokahanyo ya
163_0485 procedural programming languages
163_0489 ne bangongoreha meyeng ha ba
163_0491 ho na le phokotseho e
163_0493 oo o be o mo
163_0494 o ikenya tshotso dinaleng o
163_0496 momahanyo le ho boikamahanyo ba
163_0497 e a nenwa naheng ya
163_0499 ha ke re o utlwile
163_0500 hlokahalang le matsapa a ho
163_0501 e le o kolotang ka
163_0504 lefshwang ka tlaase le baithaopi
163_0505 football clubs established
163_0507 natural gas reserves
163_0508 c ho ngangisana le ho
163_0510 appointed prime minister
163_0513 a itlhompholle ka ho phetela
163_0516 le moputswa pududu a sa
163_0518 di sa re hlahele re
163_0519 ha di hlophiseditswe ho ka
163_0522 o mphara ka melato eo
163_0523 e hokahaneng tlwaelo ya ho
163_0524 theilweng ka ho ya ka
163_0525 melaetsa ya ditshoso ya ditshokelo
163_0527 a ikitlaheditse ha e le
163_0528 re ka e fihlelang ke
163_0529 thothokiso le ya sengolwa sa
163_0531 ya ho fa bangga ba
163_0533 sports clubs established
163_0536 boahisani le european union maelana
163_0538 ya ho ba mahlabeng ha
163_0539 se ba kopanyang ba kopangwa
163_0541 a akgeha ha a le
163_0542 ke kene morerong oo wa
163_0544 world heritage site
163_0545 kgothaletswe ho iqalla le ho
163_0548 be ho petsohe le mafika
163_0549 ka tshoha ke se ke
163_0550 ya bosebolelo ya ho qhelela
163_0552 ka phaposing ya ho phomola
163_0553 citation needed april
163_0555 tafoleng eo ho tsebiswang ho
163_0556 ka maleng komishenara o ne
163_0558 ka mabaka a utlwahalang ho
163_0559 human rights violations
163_0563 le baphedisuwa ba ka e
163_0566 american league championship
163_0570 containing video clips
163_0571 a post graduate di institjhusheneng
163_0572 methodist episcopal church
163_0574 o re ha o ka
163_0576 manufacturer for agoa particulars di
163_0577 ne o le bolepolepo o
163_0578 institushene e tshepuweng ka ho
164_0002 holy roman empire
164_0003 a mo shapileng hamper ka
164_0007 ho nthusa ha ke le
164_0010 ha ke re ha ho
164_0014 natural number n
164_0015 a ho ba le dithibela
164_0016 qaka eo a tshwarahaneng le
164_0019 best original screenplay
164_0025 mehau ha re a bokolle
164_0030 itlaleha lehlaba le mo nkileng
164_0032 lethathameng le pharaletseng le le
164_0034 a ka re hopolang ka
164_0036 di buisane le fhr ka
164_0037 se e le ka makgetlo
164_0038 verify credibility dater
164_0041 v ha a ne a
164_0042 e tshelwang matamong a ho
164_0045 dubious date march
164_0049 ba sebedisang matsoho ho buwa
164_0050 e ka ha ho a
164_0051 ne sa e romele ha
164_0054 e kotjwang ke rekoto ya
164_0056 army air corps
164_0057 letlalepepilwe o ithorisa o re
164_0060 ha o ja ho ja
164_0063 ho se tlhokahalo ya ho
164_0064 ho roka ke ho bokotsa
164_0065 le na le vitamin d
164_0067 kemangau a e hlepholaka ka
164_0068 ha ke re o ne
164_0069 continental united states
164_0070 blood pressure hypertension le asthma
164_0071 a ithorise ka lefeela la
164_0072 ahwa wa morapedi ha ke
164_0073 ya thothokiso le ya sengolwa
164_0075 e ne e le makgowa
164_0076 game boy advance
164_0077 p na ke lefa ka
164_0078 a bonahala ha ho le
164_0082 kgodise ha di tshehe tswe
164_0083 o a ntjodietsa ha ke
164_0084 se di sutelwa ka mokotleng
164_0085 american voice actors
164_0087 mmisi lekena o ne a
164_0088 yahae e talana e pepileng
164_0089 leakaretsi o be o le
164_0090 o re o a mo
164_0093 free market economy
164_0094 hlileng e o hwayahwayang ha
164_0095 eo e ipatlelalenaka la mophatong
164_0096 radiopane a ka be a
164_0097 le ha a le ka
164_0098 bo tsotehang hakanakana na ha
164_0099 kantorong eo molefi a dutseng
164_0100 ba ne ba ka hapa
164_0102 phokojwe ha e tshela moedi
164_0103 le mmatheko ene e le
164_0104 sa balang le ha ho
164_0105 ya maswetso e ikarolang ho
164_0106 vasco da gama
164_0108 mmontsha tosa le madinyane a
164_0109 ha mosifa o honyela o
164_0110 gauteng kamora leeto la balfour
164_0111 holane lebelo re sa ikgapele
164_0113 modumellani a ke ke a
164_0114 thabeng le ha ho le
164_0115 bophihlelo ba boiketsetso ho phedisana
164_0116 amohelwe ke registration committee of
164_0117 ho bokellwa le ho hlophollwa
164_0118 manyala a entsweng ka boomo
164_0121 boi ba tjhetjhe letsholong ba
164_0122 ho be le makalana mabatoweng
164_0125 ke hierarchy of needs ya
164_0126 l cuin abbr
164_0127 san francisco bay
164_0129 thellisane phupekalefe di ne di
164_0131 ne a se a tletse
164_0133 ke tshohe moru o se
164_0136 ho latele tumediso monghadi e
164_0137 ya senyesemane le ya afrikanse
164_0138 lejwe hono ha ho mo
164_0139 tshetso ya setekgeniki le ya
164_0141 ne ba ithabetse ba ipinela
164_0142 o ka ba le sethunya
164_0143 v ha a ka a
164_0144 ditofo dikisara le dihitara ke
164_0145 letshwele ha o tswelapele ho
164_0146 dnp ka bophara dnp di
164_0147 mmusong wa ditereke diprofensi le
164_0149 british science fiction
164_0150 a re hela kgudu e
164_0151 a be a itsamaele ho
164_0153 ka ho o nahanela re
164_0154 ha e kolotwe ka ha
164_0155 ho fedisa sekgeo sa dipalo
164_0156 middle east peace
164_0158 le ho ntlafatswa e le
164_0159 ha se ne se mo
164_0162 o o bale hape ho
164_0164 e tshetlehela barutwana le mesuwe
164_0167 kenelletseng a rere a be
164_0169 le ha di ngotswe di
164_0170 ba tjheseletswa ka matlung ba
164_0171 ka ha ho ya ka
164_0173 ha o ka wa ntshehetsa
164_0175 a sehetswe ho ya ka
164_0176 a kenetswe ke mokgwawa holora
164_0177 le dumme ha ho be
164_0178 prime minister margaret
164_0179 karabo ya hao ka lebaka
164_0180 dipalangwang ho kopanyelleditswe le diteishene
164_0181 ho ka hodisa le ho
164_0182 ha ho lefuwe ha ho
164_0183 bokamoso ba ka ha o
164_0185 e ne e ba feko
164_0187 ke bo menomasweu ba o
164_0189 le ho ba motswadi e
164_0191 ngolwa ka ho hlaha lehlakoreng
164_0192 e kgephola tjhabana sa rantsho
164_0194 tetse ka kgopolo ya ho
164_0195 royal swedish academy
164_0197 le sekwahelo se kwalehang ka
164_0198 a re e se e
164_0199 ya ho leta e ka
164_0200 ha re tu ka ho
164_0201 ka mongolo o makgethe o
164_0202 qabantseng di batlile di bolayana
164_0204 a qabana le mohanuwa ya
164_0205 lesweu mehoo ya dithotsela lemoya
164_0206 leshodu ke le tshwerweng ha
164_0207 taka ha ba le leetong
164_0208 eo o kileng wa e
164_0209 national public radio
164_0210 ho qekwa le ha ho
164_0211 potetseng e le ho itlhatswa
164_0212 ho ya ka supina ho
164_0213 o e kolotwang ho ya
164_0223 o halefile e le ka
164_0226 pope innocent
164_0228 federal reserve bank
164_0229 ka lehlohonolo ka iphumana ke
164_0230 ka e a thulama ke
164_0232 ha teboho a ne a
164_0233 american jewish people
164_0235 sa ho re tsekiso a
164_0238 di be le makgetha a
164_0239 eo hothweng ke hopahete ha
164_0241 wa boithaopi o bontshitsweng ke
164_0243 se ke wa qalella ho
164_0244 e ananetsweng e na le
164_0245 needed date august
164_0246 social democratic party
164_0249 following world war
164_0250 ntho di hana ho fela
164_0251 ha ka le hlahlamang o
164_0252 ba be le boikemelo le
164_0253 ya mdnb le ho rala
164_0254 ka be a sa hlahelwa
164_0257 a ne a re o
164_0258 a re phamo mokotlana wa
164_0261 ho kgetheha tekanyo ya ho
164_0263 free software foundation
164_0266 ho division liquor product stellenbosch
164_0267 le e na le baemedi
164_0268 lesea a be a se
164_0269 ao ke a utlwang ka
164_0272 a masehla ao e ka
164_0273 ne a se a hobotse
164_0274 ka thahaasello le ha e
164_0275 ha le tjhaba ke phutha
164_0279 leka ho o hlaba malotsana
164_0280 tshila e se e bokellane
164_0281 kgatello e phahameng ya madi
164_0282 rejise tara le sephetho di
164_0283 mo lwantsha ha ho na
164_0285 hlompha mamela ka tshetshefo ka
164_0287 ke e nyatsang ke ya
164_0288 mope leto di ngata ma
164_0289 ba eta ha palaemente e
164_0291 sa le e qheletswe ka
164_0293 na le leqeba le hanang
164_0294 ha ho se ho le
164_0299 e se e hlwedisitse ka
164_0301 universal postal union
164_0302 white blood cells
164_0303 kahisano le a semoya a
164_0304 kgetho ya mantswe e bontshang
164_0305 e ke ke ya transferwa
164_0307 ha e fapohe popehong e
164_0312 buile leha o ka thola
164_0314 ha tehpa e ka rekiswang
164_0315 bophirima ka botjhabela ho ho
164_0317 ho ja ha a ne
164_0318 random access memory
164_0320 leonardo da vinci
164_0321 bo ha ke no kgutlela
164_0322 ha e nkwe e le
164_0324 ne ho ka ba le
164_0326 nfl championship game
164_0328 ke rapolasi eo ha o
164_0329 a re photse ha a
164_0330 sebete o sa natse le
164_0332 ba dikoranta ke ha ba
164_0333 ya leon ho ne ho
164_0334 ft m long
164_0335 o ka re tshomo ee
164_0338 mean value theorem
164_0339 ha ke a kgathala le
164_0340 ra ntswa ntweng re se
164_0342 bo se bo ne bo
164_0343 di sa le yo ho
164_0344 mosa o ne a sa
164_0345 ha ho na le tefelo
164_0349 le ne le le mading
164_0350 sila ho tswaka le ho
164_0352 e elellwe peleke ne ke
164_0353 thulare le se le itokiseditse
164_0354 imperial japanese navy
164_0355 ha ke sa mmatla ke
164_0357 american fantasy writers
164_0359 ya maeto ha ho se
164_0360 e tlohang le sepolo ho
164_0361 north american free
164_0362 united states naval
164_0364 a se a le moimana
164_0365 a dulela ho e borosola
164_0366 karolong ya b le ya
164_0367 ha ba se ba re
164_0368 ha o qetile o arabe
164_0371 color field painting
164_0373 tshobotsi kateng a se a
164_0374 ha ho ya holebilwe eo
164_0376 ya tjhonneng ha a ka
164_0377 sacnasp professional advisory committee e
164_0378 ya mahadi eo e sa
164_0381 o ne a se na
164_0382 motjhesong wa kamore di latsweha
164_0384 ena e na le dikarolo
164_0386 second largest city
164_0388 y a mehang a ka
164_0389 takilwe mmapeng wa gis ka
164_0391 sepeketere sa ho laelwa ha
164_0392 a foreshe e laolwang ke
164_0393 le dilomo meru e kopaneng
164_0394 australian capital territory
164_0395 ka nicd ho na le
164_0396 a ka re o sa
164_0397 ho be le phumantso e
164_0398 jwang ha ho se ho
164_0399 ha ho kgonehe ho ka
164_0400 o ne a sa enahane
164_0402 ha a ka a otlana
164_0404 wa bobiala o ne o
164_0405 a le thelefounung ho di
164_0406 ha e se e le
164_0407 le se le letse phoka
164_0408 ha kgahliso a mo fata
164_0409 ha e ba ba ne
164_0412 e se e phethahaditswe a
164_0414 drug administration fda
164_0415 o tlabidika a thwene a
164_0418 ha o sa tshwanelwa ke
164_0419 hlatsa le ha o ne
164_0420 na le phehello ya ho
164_0421 ka makgapha ha o ka
164_0422 o puta ha le le
164_0425 re ka amohelang manyala a
164_0427 ha tokollo ya fpe e
164_0428 e ne e le sefe
164_0434 kgalefo eo ha e na
164_0435 o besang o tuke ho
164_0436 ha ho ne ho ka
164_0437 o ka fa sheri wa
164_0438 ho re ke a o
164_0440 e ne e mo arohantse
164_0441 ha a e na le
164_0442 states army soldiers
164_0447 ya panama ya re pheu
164_0450 o ne o re na
164_0452 le leng le le leng
164_0453 ha o se o ngodisitswe
164_0454 e sa le ke na
164_0455 se na tshitiso palong ya
164_0456 wa tlelapo ya lantjhe b
164_0459 a sa phefomolohe le ho
164_0462 o di tlodisa ho ya
164_0464 ka masela a tafole le
164_0465 eo ba e late lang
164_0466 ho ka maiteko a ho
164_0469 bomme ba se ba leleka
164_0471 a ne a ipuella ka
164_0475 e ne se e le
164_0476 o ne a rapela ha
164_0479 chikano e ne e le
164_0480 a itholela a re tu
164_0487 tlamang ho ka phethwa ke
164_0489 ba hodisitswe ho se na
164_0492 maidiidi a mo lesa a
164_0496 mo rekela watjhe ha a
164_0501 fihlellwang ho e na le
164_0502 ba se ba e kolla
164_0504 o lematsa ntjapedi ha e
164_0507 ha e le ho teela
164_0508 hohlola le ho ba le
164_0509 fact date july
164_0510 e ka na ba ha
164_0512 le ho re ho tshabanwe
164_0520 e na le histori e
164_0521 le dibanana di na le
164_0523 le ha barata ho nkeletsa
164_0527 ba ka di ke ke
164_0528 mohokare e ne e le
164_0530 ha a ka a mo
164_0531 free trade association
164_0534 ke se ke ka mo
164_0536 le dikakiso o ne a
164_0537 o se abile a le
164_0539 episcopal church usa
164_0540 v v v ha a
164_0541 ke ya ho batlisisa ka
164_0543 ne ke re ho ya
164_0544 ho itwanela ka ha a
164_0545 kojwana di mahetleng le ba
164_0547 e fifetse ke mobunyana le
164_0550 di ja le ho di
164_0552 ka le ne le hanella
164_0555 pope pius
164_0556 leqwetha a sa re o
164_0558 se ke la ba la
164_0559 rateng le ha ke re
164_0561 bahlabani ba ne ba ka
164_0563 national historic landmark
164_0564 e ye e re ha
164_0567 kepa a rola katiba a
164_0568 be re be re aha
164_0570 ka ba toma le ho
164_0575 ha ke mmotsa a re
164_0576 a nwe ho faswa e
164_0577 o ntshwarele ha e le
164_0579 ba fosetsaneng ha o sa
164_0581 o be o di ngole
164_0583 o mobe o sa rateheng
164_0584 ho ka hlahlojwang le ho
164_0585 ho re na ke a
164_0590 e le engwe ho na
164_0594 o be o le sehelle
164_0596 se ke wa tshaba ho
164_0597 moscow state university
164_0599 di ne di ke ke
164_0601 eo o hlolang o e
164_0603 ne e ka ba bo
164_0604 soma ho mo qosa le
164_0610 e kalo ka r e
164_0611 valence bond theory
164_0614 lebososelo le monaleo a tummeng
164_0616 di e ja e le
164_0619 hlanya ho ne ho batleha
164_0623 e se be eo mmate
164_0624 la ho potlaka ho ka
164_0625 le ha e le se
164_0626 ke bosotho nthwese kola sa
164_0627 le o sa kgeseng e
164_0628 e ne e ka ba
164_0632 se e le lesupi ho
164_0633 se bo ikakgetse ka setotswana
164_0636 castel sant angelo
164_0638 beleha le ho adoptha ho
164_0640 la tiiso ka e meile
164_0641 di tshwauwe pampiring eo di
164_0643 itebohela ha ke sa ka
164_0644 ba matriki di se di
164_0645 di kititsa le ha a
164_0646 ho ba moruti wa kereke
164_0648 ka ba ke hanana le
164_0649 ya ho ba le dikimi
164_0651 se qaqolohane ha se a
164_0652 ye a re o ka
164_0653 la ka ho ipapisitswe le
164_0654 elected prime minister
164_0655 e ka ba ao e
164_0657 ho nahana le ho amohela
164_0658 ke ke a lema a
164_0659 se kgathale a be le
164_0662 yane ya mahadi eo e
164_0663 e tswang ho nac ho
164_0665 sa robben ha a ka
164_0668 le momahano le ho bona
164_0669 a shwa ke a ikepela
164_0671 le hlahe ho o fa
164_0673 ba pitsa e bele o
164_0675 ya phano e behuweng e
164_0676 le yena o ne a
164_0678 e ka makotikoting le e
164_0679 chinese new year
164_0680 ba kamoso o ya o
164_0682 ha e hate ka maro
164_0702 ha ho ka ba le
164_0718 ba ath party
164_0719 e re ke lebe ka
164_0758 re ho a be ho
164_0760 be a qetelle a sa
164_0761 le maruo a terasete ya
164_0764 ke re ho ye ho
164_0767 ho a tlama ho tlatsa
164_0769 mahlabisa dihlong e le ka
164_0770 ba sa tswafe ho e
164_0771 la nale a ke o
164_0773 di entswe ho na di
164_0777 qha eo re ka mo
164_0778 pro football hall
164_0780 later middle ages
164_0781 ba itlhophereng ba na le
164_0782 shebe e be o seha
164_0784 lemang di a tjheha di
164_0786 be leholo o se o
164_0789 ya tleleime ka sekgahla sa
164_0795 mathomo e ne e se
164_0796 ho ya boithabisong ho se
164_0797 e so ka ba o
164_0800 le phosphorus e ka ba
164_0803 wa be o se o
164_0804 le ho se tsejwe ha
164_0805 di ya ka therifi ho
164_0808 hehehe ho re ho na
164_0811 ho eo ho itsweng ho
164_0819 ka wa mo palla ka
164_0820 ya se ke ya mo
164_0824 o ne a wetswe ke
164_0826 bulele ha ho se ya
164_0833 united states government
164_0837 boya ho ne ho tletse
164_0838 tjhonneng ha a ka a
164_0840 e atiswa ke ho se
164_0842 a mo thiba a ba
164_0847 e se e nyeunya diboko
164_0848 na le maikarabelo a ho
164_0852 semolao le ho ao e
164_0855 ya ka kutlwisiso ya hao
164_0856 o ne a robile melala
164_0857 ka ho ba le setswalle
164_0858 matheka e be ba ya
164_0860 ding ho na le phetapheto
164_0861 ba ha ke sa le
164_0864 habileng ho ja a le
164_0865 a se a saipatle ha
164_0868 o a o tsebatseba o
164_0869 eo o tlang ho e
164_0870 se o le kgaba le
164_0873 babaholo o be o se
164_0879 re se ke ra phomola
164_0880 ha ba hatelle le ho
164_0881 e ne e le ngwana
164_0882 o di ngolang ha o
164_0883 ha ke no tswafa ho
164_0884 sebeditswe le ho lefuwa ka
164_0885 a ne a ka o
164_0886 monka ka bethe eo a
164_0887 ya sa lleng o shwela
164_0888 sa atise ho ba ya
164_0890 e re ka ha ho
164_0891 o e tatetseng e ka
164_0892 o re le ha ho
164_0896 se a e na le
164_0897 ke ne ke sisinya ho
164_0898 wa dikarata ha ba na
164_0903 thiba a ba a mo
164_0910 ho se itshepe ha a
164_0911 le mokopi eo ha ho
164_0912 leqheku ho tsofala le ratang
164_0913 ya mekete ke ne ke
164_0914 o re na modimo o
164_0915 nkwa e rometswe ha e
164_0916 a ne a le bodutu
164_0918 ke ha re sa mo
164_0919 yellowstone national park
164_0920 ya tshitwe le ne le
164_0921 be le social worker ya
164_0922 se se se qhaphaleditswe ke
164_0928 di le tala di le
164_0931 ha ke re o sa
164_0936 le ho lekolwa ha ho
164_0937 sebo peho ka b o
164_0940 ke ke sa o putsa
164_0941 ne a mo ja tsome
164_0942 ya o a se kgitla
165_0002 ba ka ke tjho le
165_0003 busetswang madulong eo ho tjhona
165_0004 early twentieth centuries
165_0005 se le motshela ka ditlatse
165_0006 e sa le dinyane dikgolo
165_0007 le ho nyonyehang le ho
165_0008 le ne le sa re
165_0009 ke ya ba mothusi wa
165_0011 tshoswe tlatlatjwe tshwengwe tsha biswe
165_0012 ho se ho mekamekanwe le
165_0013 nyumonia ho e na le
165_0014 lata mohatsae le lesea la
165_0015 e ngolwe ka maleme a
165_0016 ho kgahlanyetsa masopha le sekgonyana
165_0017 se mo hlahetseng mo romelle
165_0018 ho ke ke ha ntswela
165_0019 lefadikoloto ba reke dijole ho
165_0020 le ho se kenyeletswe ha
165_0021 e mengatanyana e thontshe le
165_0025 a emelwa tseko ho realo
165_0026 ne e re e le
165_0028 ho ya ka boinahanelo ba
165_0029 grand theft auto
165_0030 ba e se e le
165_0031 eo khemiseng ya netweke ya
165_0032 video music awards
165_0033 ho ba le dibotjhe mekotjana
165_0035 bolokang ba le leseding mamelang
165_0036 ka ha a ne a
165_0039 o a mo honohela ka
165_0040 re ne re ya lehodimong
165_0041 ba ha e be ke
165_0042 e phethahatswe ke mebuso ya
165_0043 fumanwe ka ho se tshepahale
165_0044 dikuku dibiskiti teye le kofi
165_0046 mohala eo o letsang ka
165_0047 universal adult suffrage
165_0048 axiomatic set theory
165_0049 wa ntsubisa seneifi ke a
165_0052 uefa champions league
165_0053 sa methabolisemo ke ho ja
165_0056 international security assistance
165_0057 la ho ntshuwa ha batshwaruwa
165_0059 le ha e se ka
165_0060 wa rona wa ho keteka
165_0062 tselekaneng ho se amahanya le
165_0063 ke eo a se a
165_0064 ya phetolo ya lefutso e
165_0065 e ne e sa nowe
165_0066 thelevisheneng ke a ditshwantshiso o
165_0067 le tjhebelopele cjs e tlamahantsweng
165_0069 public transport network
165_0070 kgaitsedi le motjhana ba buileng
165_0072 civil rights movement
165_0074 di hadikela ho di ja
165_0076 mmasilo makeleketla mangaung ho ya
165_0077 polao peto le ho otlwa
165_0078 e na le kgoka hano
165_0079 wa modise o a tella
165_0080 ne a sa tswafe ho
165_0081 tlhahisong ya moqo qo o
165_0082 swahlamana ho nkuweng pusong ya
165_0083 sepetlele le kantle ho sepetlele
165_0084 holahola o a kgasa o
165_0085 sa bollang a a qhaleha
165_0086 wa sethunya se kgabolang o
165_0087 phehilweng le ho thuhiwa ha
165_0089 sekemeng re ke ke ra
165_0091 a tlohile matatilele a re
165_0092 bafe ba ka ha re
165_0093 se a siuwe ke makgaola
165_0095 hasan ali shah
165_0096 ho imolla nkgono ho jareng
165_0097 database management systems
165_0098 security assistance force
165_0099 a a nkellang hloohong e
165_0100 international monetary fund
165_0102 sehlopha sa bokone nguni le
165_0103 d e f le g
165_0104 ne a makatswa ke ho
165_0109 o ka diha nnyeonyeo o
165_0110 wa molahlehi o ne a
165_0111 utlwi sisa se hlahiswang ha
165_0113 ka bobatsi bo boholwanyane ho
165_0114 phepo e tletseng bophelo bo
165_0115 wa ho ya mo nkisa
165_0116 o sitilwe ke ho ba
165_0117 official seed testing station se
165_0118 bo yo ha ho ba
165_0119 dinyamatsane dikomang le diqabang ya
165_0120 old high german
165_0121 wa mmmadiepollo a re balakatha
165_0123 e sebeditswe le ho lefuwa
165_0124 e meile ho tsoma ho
165_0125 ka diotli ho lenonyeletso le
165_0126 ha se so ka se
165_0127 di a emelwa o ka
165_0128 ho sa kenyelletswe ho ba
165_0129 sa ho tenyetseha le ho
165_0130 fifa world cup
165_0131 kopano le ha ho le
165_0132 islamic courts union
165_0133 ha ho tletsethabo e sa
165_0134 baphedisuwa ba ka ya sephiring
165_0138 ho hohela babadi ho reka
165_0139 wa general electric bekeng e
165_0141 ha e se ho mo
165_0142 ho ne ho tjhesa ke
165_0143 e le ho ya yunivesithing
165_0144 tholang re se re le
165_0145 a se a le motjhining
165_0146 e tlamehang ho nkuwa ho
165_0147 eo ba e fuwang ke
165_0148 dipolelong ka maetsi a matso
165_0149 ka tlwaelo e sa le
165_0150 german air force
165_0151 o ne a nkile moriri
165_0152 o a iphapanya o re
165_0153 engineering task force
165_0154 le tswello di ka fuputswa
165_0155 la provinse dibankeng le ho
165_0156 e governance e learning e
165_0157 po ka dimpa a be
165_0158 di bopilwe ka tsela e
165_0160 setho e tiisang boitshetleho ba
165_0161 ha ho kenwe selekaneng le
165_0164 operation desert storm
165_0165 united states congress
165_0167 hong kong island
165_0169 hillbrow e ne e le
165_0171 le d ho tshireletsa leqheku
165_0173 ya swine flu ke ho
165_0174 yaka le beso ba a
165_0176 e sa rerwang a sa
165_0177 kgohletse a le dibebe molomong
165_0178 mokgwatshebetso o phatlalladitsweng le o
165_0183 wee ee a hweletsa a
165_0184 ho nyalanngwa ha di rutwa
165_0185 le mafika pontsho o a
165_0186 wa parole o ne o
165_0187 ya c ebang o sa
165_0188 e so lokele kwetliso ya
165_0189 ba e abetsweng le ho
165_0190 san ji go roc sichi
165_0192 ha ho na moemedi wa
165_0193 phutholohile ha e ya rarahana
165_0194 manganga a tenang ho kgaruma
165_0195 e ne e le ho
165_0196 ke ho ananela le ho
165_0198 ne a bokolla seboko se
165_0199 na ha ho le tjee
165_0200 fact date november
165_0201 ya ahloletsweng tjhankana ka ho
165_0202 ya seemo se selelele ya
165_0203 ha se le ka felang
165_0206 oo ha re a phekgohe
165_0207 towe o mo phetha ka
165_0208 ha o sa ithuti o
165_0209 ba a mo kgalemela ka
165_0210 di hlahlojwe le ho fumantshwa
165_0211 a laelamohalehore a tswebodibenghore a
165_0212 international telecommunication union
165_0213 television series endings
165_0214 ratahore re tsamayeng re ye
165_0215 le neletsano e momahaneng e
165_0216 ho ne ho phelwa ka
165_0217 kgulo ya ditefello e etswang
165_0220 e a nehelwa kgweding ya
165_0222 le nebank ho ke ke
165_0224 ba qositse bokgothokgotho ba diranta
165_0226 labalabele le ho bo labalabela
165_0227 ne a se a ferekane
165_0228 ano ka ha a ne
165_0229 ke a itebohelaha ke sa
165_0230 fihleletsweng ke motsemoholo le diphephetso
165_0231 poelano le voutetse ka ho
165_0232 modimo ha ke sa ka
165_0233 e nenge se e emetse
165_0234 se hlahellahakgama a ne a
165_0235 ya bosupa e se e
165_0237 haellang ya ma ntswe a
165_0243 o busang le ho ameha
165_0244 ha ba sa re tshepa
165_0245 ka ho phoqa oo be
165_0247 nyollwa kadiranta le ha ho
165_0248 ya ho rekota hangata ho
165_0249 monene ha re ne re
165_0250 imperial japanese army
165_0251 ka mosing nakong e fetileng
165_0252 le ho ba le boitemohelo
165_0254 dimmaeneng ha a le dimmaeneng
165_0255 greatest common divisor
165_0256 a se a re phoqile
165_0257 tshebedisanommoho ba bophihlelo ba boiketsetso
165_0259 thutong le ha ho le
165_0261 eo le re qhoshetsang ka
165_0262 bofumanehi le ho se lekalekane
165_0263 le dikenkeng se ne se
165_0265 science fiction novel
165_0266 diqhoku di batalletse o sefika
165_0267 data link layer
165_0268 a kwenne e le poropotlwana
165_0269 la inshorense ya ho hloka
165_0270 army occupied cypriot
165_0271 a ithutla a itosolla ka
165_0272 toloka ho latelanang ho toloka
165_0273 ho sisiki boranti le dipiriti
165_0275 ya dutseng ka botlolo e
165_0278 kgutshwanyane ha o ne o
165_0279 diphetoho di kenngwe melaong e
165_0280 rapid economic growth
165_0281 jo ha qwading e le
165_0282 early nineteenth century
165_0284 ho fetolelwa bafetoleding ba poraefete
165_0285 eo a ka mo tsohela
165_0286 ho tshwaela e ananelwa mekgweng
165_0287 o ne a lekile ho
165_0288 theilweng hodima monahano tlhophiso ya
165_0291 di se di etsahetse ha
165_0292 yane e ka marantha a
165_0293 tshenyo ha e felle mono
165_0294 balfour e mpumalanga le thembisa
165_0295 e ikgethang le ya seakademiki
165_0296 eo e se e le
165_0298 ke ka baka lang o
165_0299 le dikwere dipaka le mabitla
165_0300 ba a mo tenehela ba
165_0301 sister ruth e ne e
165_0302 liberal arts college
165_0303 eo a tlwaetseng ho e
165_0307 i dikonteraka ta disiling ho
165_0308 tlotsa sefahleho ka keketso kamehla
165_0309 wa tekolobotjha ya bolekane ba
165_0310 ba ka sireletsang le ho
165_0311 social distress relief grant le
165_0312 a selehae le ha e
165_0313 bolelele ke bo nepa hetseng
165_0314 armenian apostolic church
165_0317 league baseball players
165_0318 ho ba morutisi wa ho
165_0319 electron transport chain
165_0320 ke wa lemoha bodiba ba
165_0321 habedi hararo yaba o a
165_0324 old west norse
165_0325 o mo lakaletsa mahlohonolo a
165_0326 wa bohokanyi le keletso wa
165_0328 e le lekgoba la tahi
165_0329 bo le ho o batang
165_0330 he ho ne ho se
165_0331 utluwang ke ya hlotsweng le
165_0332 ke mo rolela kgaebane e
165_0333 meqoqo ya phirimana j g
165_0334 morethetho metuta ya diphetapheto le
165_0335 german military personnel
165_0338 ya hatiswa e saenwe e
165_0339 ekwa ke lekgomosha le itswelang
165_0340 o lekole phamflete ya adoption
165_0342 a nyakalla a ba a
165_0343 letsholong la ho tlabola dilekane
165_0344 pharela le ha ho le
165_0345 e le lekonstabole boriki le
165_0346 e ka rekiswang e ka
165_0347 united states air
165_0348 ho nkeha ha dibakisotabeng ya
165_0349 qabana hampempe le mmamasolomane vv
165_0350 o phehelletse ho nqosa ka
165_0351 e sa le e qaleha
165_0353 e behuweng ha e le
165_0355 lengata ka ho ya ka
165_0357 e le mohirwa wa broukara
165_0358 hakaakang ha re ne re
165_0359 ho matlafatswa le ho ntshetswa
165_0361 civil rights act
165_0362 lebekebeke di re ke moloi
165_0363 sinclair zx spectrum
165_0364 sa le elwa wa maoba
165_0366 eo ho fanweng ka yona
165_0368 empa ho na le ho
165_0369 le boloko ba ditsebiso dipale
165_0370 le motletlebi e be le
165_0372 di je ba ke ke
165_0373 ka mahafing le masapong a
165_0375 diau o ne a se
165_0376 le ho boloka maqhama a
165_0378 ka ha dipotso di nomorilwe
165_0379 a kgaqile majwala a le
165_0382 baneng e re hokahanya le
165_0383 e ne e le monghadi
165_0384 ba dipolasing ha re na
165_0385 le balebedi ba se ba
165_0387 se ke a ja le
165_0388 ha mokuru o se o
165_0389 mathibe le ha ba ne
165_0390 ya mahlale le thekenoloji ntshetsopeleng
165_0391 ho sotlwa ka ho utlwiswa
165_0392 ye di se latelane ho
165_0394 se di tshwailwe ho bolelang
165_0395 ya ka ya farasa ka
165_0396 le se le phuthehile ke
165_0397 afihlilengo tlatseba lapa labo o
165_0400 le ka peipi ya kenyomoya
165_0401 mojabeng le kgaitsedie disebo ba
165_0402 o a hlwephetsa o tjho
165_0404 higher education institutions
165_0406 ho mo busetsa moalong wa
165_0409 african american musicians
165_0411 tshwarwa ka sephiri ka dinako
165_0413 e kopanetsweng e ka kgutsufatsa
165_0414 a se a mo lelekile
165_0416 o re ha ho ne
165_0417 ka seipheo sa ho nosetsa
165_0418 dinepe ditshwantsho diselaete mmino modumo
165_0419 a mo thetsa ka ho
165_0420 se ke la qeyaqeya ho
165_0421 se mara ha se ho
165_0422 a re qaleng ho ba
165_0424 le mokotaba ka le ho
165_0425 ho di developer le ho
165_0426 tjhepisi ya stimorol e fumanehang
165_0427 free software movement
165_0428 be le tjantjello ya ho
165_0429 e ba ha e be
165_0430 a ka a utlwela ka
165_0431 ba ke ba mo rute
165_0432 ha ke tjhaisa thapama ke
165_0433 mehlaena a tholathola motsotsoo mokgutswanyane
165_0434 ya mmonang ha a se
165_0435 hoile a keketehisa ao mabewana
165_0437 menu e phuthollang dropdown ya
165_0440 re be re arohanngwa ke
165_0441 e theko e boima ya
165_0445 habobebe ka ho tobetsa selefounung
165_0446 ba iphumanang ba le ho
165_0447 ne e le ba moradi
165_0448 ke o tehele mohlalanyana o
165_0449 ho ya ka phanele ya
165_0450 la ka ke dudu bukaneng
165_0451 ho ya le ho kgiutla
165_0453 game boy color
165_0454 ka konteraka ba tlangwa ke
165_0456 le lebitso la ka le
165_0457 motlalentwa o kgaohane le motsotuwa
165_0461 mofifi le mmakgama le mmatheko
165_0462 hahelwa servcon ke thubelisha homes
165_0464 lebanese armed forces
165_0465 ba fekisana ka dithipa le
165_0466 le ba kojwana di mahetleng
165_0467 ha ho na le molekodi
165_0469 ke itse setsweng ke hole
165_0470 fihlelammatoko a pitika a meneka
165_0472 o ne o ikopa ho
165_0473 sekgethe ha ke ne ke
165_0474 ba ripitla wadene le mabotho
165_0475 arthur conan doyle
165_0476 lebekere la oli le borotho
165_0477 indian classical music
165_0478 buisana ka wena moetapele wa
165_0479 bo tsamaelanang le tjhesehelo e
165_0480 association football clubs
165_0481 b abela ho phethwa ha
165_0482 ho hang kaha e lekotswe
165_0483 e se e tsitsitse dikeledi
165_0484 hetse sa ba sa itlamela
165_0485 di re tsuuu a tsitsinya
165_0486 ba jang setoto ka lere
165_0488 motswako wa lero la morara
165_0489 a lebelletsweng a ho qadisa
165_0490 emperor sh wa
165_0491 hlolang ke le tshohla le
165_0492 nobel prize winner
165_0493 re tsosetsa diletseng o kgutsa
165_0494 e sa ikadimeng meelelo e
165_0495 meokgo na le ne le
165_0499 tseo ho fanwang ka tsona
165_0501 a e tidinya ha engwa
165_0502 hlwaya le ho fihlela moelelo
165_0503 na ba ha a na
165_0504 e le ho rothisa keledi
165_0505 hlahe ho o fa dikeletso
165_0507 ho hlahlojwa ke pac e
165_0508 tjhankane e ne e le
165_0509 tsohile e sa le ka
165_0512 e ne e le ba
165_0513 ka lekeke e ka ba
165_0514 sekepele se behilweng ho ka
165_0515 letheka e ka la mmamodukule
165_0516 a lebisitseng ho thehweng ha
165_0517 europe music awards
165_0518 ya matlwana di ba le
165_0519 tsitlallela ho emela boikemisetso ba
165_0520 o a re latola o
165_0521 e ka la mmamodukule o
165_0522 a keketehe ha sehwabane se
165_0523 sekgoba o be o hlahise
165_0525 ka makopanyi masupi le mahokedi
165_0526 polelong ya a le ya
165_0528 ke o rata ke tiile
165_0529 be a se a mo
165_0530 o re ho robala ke
165_0531 melodi diqhomane di kititsa le
165_0532 chester williams o ne a
165_0533 supreme allied commander
165_0534 madume ho boetapele ba mokga
165_0535 tefello ka ho toba akhaonteng
165_0536 la abiele ha re sa
165_0539 le thelefounung ho di e
165_0540 ne o hirile bahiruwa ba
165_0542 ke ba hodisitsweng ka dikgalemelo
165_0543 pope pius
165_0544 eo e be se hlakileng
165_0545 tobaneng le ho ntshwa ha
165_0546 mo memela le meketeng o
165_0548 aterese le nomoro ya mohala
165_0549 ka botsona di ne di
165_0550 tlohetse mosebetsiwane wa dikitjheneng ka
165_0551 ya ka a ka re
165_0553 a le moimana ha a
165_0554 second punic war
165_0555 socialist workers party
165_0556 eo le mmolokileng selemong se
165_0557 ka ho una ho tseteleng
165_0558 army air forces
165_0559 international astronomical union
165_0560 ha difensetere di tjhwatleha le
165_0561 na o na le kganyetso
165_0562 commedia dell arte
165_0563 moeti ya ikemetseng wa ditjhankane
165_0564 le kgothaletso ya boikgwantlello le
165_0566 le tjharola ya mohlankana e
165_0568 le lempetje ha ore o
165_0569 los angeles dodgers
165_0570 lekgomosha ke ha le se
165_0572 a ba kgathalle le ha
165_0573 ka ho re se mo
165_0574 fetotsweng lefutso le v melawaneng
165_0575 o ikgotsofaditse ho ya ka
165_0576 lesele ha a se a
165_0577 ya sethatho ho iswa ho
165_0578 o aparela manana o kgahlisa
165_0579 ho ba hlorisa ke a
165_0580 a phefomoloho papisong le ditshebetso
165_0582 e se e kgelekgetha holele
165_0583 morunyaneng a ba a kgatholoha
165_0584 second world war
165_0586 cc e ka hlodisana le
165_0588 oo mokobobo o na le
165_0589 calluses ho di vocal cord
165_0590 ho rehella ka ho tlotla
165_0591 ho ya thupelong ya tjhoriso
165_0592 ne a se a tenehela
165_0593 ke sa eboneng ke kgathetse
165_0594 ke dule ke kgwabitlwa ke
165_0595 a e i o u
165_0597 ka ho arohanya ditlhaku o
165_0599 le ka tjheletevv raboditse o
165_0600 bapisa maelana a ho kholomo
165_0601 le momahano le ho bona
165_0606 ba pitsa e bele o
165_0608 ya phano e behuweng e
165_0609 le yena o ne a
165_0611 o inyadisa bahlankaneng ha a
165_0612 e ka makotikoting le e
165_0613 chinese new year
165_0616 ha e hate ka maro
165_0617 re kopantse se fella hona
165_0618 tshepisane a se ke a
165_0619 ba hatellwe ka ho tingwa
165_0620 ya mosuwehlooho ho ya utlwahantle
165_0621 ba bokgotsing ba ke ke
165_0622 e sa le a nyalwa
165_0623 american film actors
165_0624 dipale le ha e le
165_0625 wa emalahleni mof malatjie o
165_0627 e se ka diketso ke
165_0628 a ha ho na le
165_0629 monnae a mo atametsa ho
165_0630 jwalojwalo le ha ho le
165_0631 e nngweentlee mo susumeleditse ho
166_0001 wa matsibolo a se a
166_0002 le ha hone ho le
166_0007 ba intshang sehlabelo ka ho
166_0008 barutwana le matitjhere ba be
166_0010 la dikgokahano ba in communications
166_0012 following demographic statistics
166_0014 johann sebastian bach
166_0017 e kgwaetse ka lehafing a
166_0018 eo ba mo feheletsang ka
166_0019 sa mo re shwato nkong
166_0020 human rights abuses
166_0025 sa qeaqee le ho qeaqea
166_0029 congressional gold medal
166_0030 atomic energy commission
166_0031 se batlwang ke takadimane ba
166_0033 ba le phehiso e tlotlehang
166_0036 aung san suu
166_0037 wat sal my nou te
166_0039 buisanang le ho ngangisana ka
166_0040 disebo o ipolaile a ba
166_0043 irish republican army
166_0046 le le ka sekotlong sa
166_0047 re e ka mo loma
166_0049 sa nkge leseporo le kgutletse
166_0050 hlotjhwa ha ba di shebelletse
166_0052 se a kgahlilwe ke ka
166_0053 ho se ho ho le
166_0054 le ha a ne a
166_0055 mokgahlelong o ka tlasenyana koporo
166_0056 e ka ba le ditlamorao
166_0061 e lelefalang le ho kgutsufala
166_0062 na le seroto se sa
166_0065 a welang makaleng a tshwanang
166_0068 di sa le setlwaeding yaletsetsa
166_0069 serapa le ho hlwekisajarete le
166_0070 afidavite e tswang ho setho
166_0072 e lwanenela lepatlelo la dithekiso
166_0073 ha re lekola dikopo le
166_0074 ho re ho se ho
166_0075 e re pududu a sa
166_0078 le ho ipapisa le thomo
166_0080 le ja podi ho fetafeta
166_0082 tsamaiso ya sekema le ditlhophiso
166_0083 tjhotjholosa ba ne ba le
166_0084 e se e ie dibeke
166_0085 le apesa ho kupetswe bofeela
166_0087 samuel taylor coleridge
166_0088 didibeng babalang ba re le
166_0089 bavouti ba ingodisitseng ba tlohileng
166_0090 ntjapedi ha e hlolwe ke
166_0091 wa ket sahalo ya ho
166_0092 national historic site
166_0093 malapaa utlwilengbohloko kabaka la horeemongwa
166_0094 ya ka tlelaseng setsing sa
166_0095 a ka ngodiswa e le
166_0096 le ha e se a
166_0097 sa thomelo le thomello ya
166_0098 le ho hlahisa dipalopalo dikhopi
166_0099 e ka ba le makukuno
166_0101 mo tshabang ho nkgisetsana mahafi
166_0103 maru a matsho a fifetseng
166_0104 mme o sehe mola qetellong
166_0105 john maynard keynes
166_0106 tjhetjha a ba a tjhetjha
166_0107 re ba memmeng ka ho
166_0108 ho bolokwa le ho hlokomelwa
166_0110 re lebatswadi ba banabana le
166_0111 ya mo hatelletseng e ba
166_0112 sa dikulo difensetereng le monyako
166_0113 o re qobella ho hasanya
166_0114 dikabo ka ho ya ka
166_0116 national security council
166_0117 ya vat vendor search ke
166_0119 dikgwerekgwere le monyediso ya mantle
166_0120 o ne a hlabile dioka
166_0121 boikopelo re se re sa
166_0122 eo re ka mo kgothollang
166_0123 direng ba mo seohela ba
166_0125 re be ngatanngwe ke pheto
166_0126 o ne a sa thothomele
166_0128 ba ke ke ba jala
166_0132 dipalesa mabitleng e ne e
166_0134 e le ba ahetseng tjhankaneng
166_0136 a re itjhuu itjhuu itjhuu
166_0137 bomolao boikarallo ho ba le
166_0138 o se ke wa kenya
166_0139 se ke wakgahlwa ke lefiso
166_0140 na le ho bakang ho
166_0142 a holetseng ba kwalehile ba
166_0143 e na le boikarabelo ba
166_0144 ho ya ka dikereiti mephatong
166_0145 se phethahetseng setjhabeng le dibakeng
166_0146 developments pty limited le khayalethu
166_0148 be e se e kgutlisetswa
166_0150 o se kgitla le ho
166_0152 le phokotsehong ya ho putlama
166_0154 ho se o lefise ditefiso
166_0155 sa cricket ka ho ba
166_0157 di buwang ka boikobo bo
166_0158 ne ba seretswe ha mefenetha
166_0159 le ho ba tsietseng ya
166_0160 bo ke ke ba fetolwa
166_0161 e kgothaletswang ya llifi ya
166_0162 o ne a sa a
166_0163 metjha ya kahare ka ho
166_0164 e lwanelang ditsela ha e
166_0166 ho ba pepenene le ho
166_0168 manane le dinehelano le ho
166_0169 le a phunngwamme moloio a
166_0170 le nehelano e nang le
166_0171 thenthetswa le a nyonya le
166_0172 ba mapolasing balemi rui le
166_0173 boyona e ke ke ya
166_0174 la phapang eo e a
166_0175 o lo nkopela tafo ke
166_0176 eo e ke ke ya
166_0177 di be di mela manaka
166_0178 neho sa kahaeba le lerataka
166_0179 le kelohloko e hlokolosi ya
166_0180 baena le dikgaitsedi ke thatano
166_0184 ho ne ho phethesela ke
166_0185 ke ke ba ba le
166_0186 malomao ya o hodisitseng ho
166_0187 ho ikakgela kasetotswana ho kenyeng
166_0188 ho na le dingongoreho ka
166_0189 e le tlaka le a
166_0190 na ha o ka kgethelwa
166_0191 yare ha ba kenella ka
166_0192 santaco re ke ke ra
166_0193 ho letsa diletswa ka ho
166_0194 e sa hlokomelweng ka ho
166_0195 e maikemisetsong a ho ka
166_0196 ne e le makejakejane a
166_0198 ka botjhabela ho ho ne
166_0199 se thibelang mafafatsane a ko
166_0200 ba tjhetjhe ha e le
166_0201 dube thankga a be a
166_0202 o a qeaqea ha a
166_0204 ke ke wa ba le
166_0205 bangata ba ne ba se
166_0206 o re tlotlolotse re ne
166_0207 dikgomo ha di na motlohapele
166_0208 a se a bina sefela
166_0210 le lesisithehonyana ho ka phunya
166_0211 underwriter ho ya ka pholisi
166_0212 le ha hothwe ke lenqosa
166_0213 ke semathi se seholo o
166_0214 e ne e le sehwabana
166_0215 ho ipapisitswe le melawana ya
166_0216 se saenetswe ke baamehi ba
166_0217 mamenemene ba bolotsana ke maqitolo
166_0218 ho se hlomphehe ha ho
166_0220 tsena e ne e le
166_0221 ho sa ohlweng le ho
166_0222 ke ke ya rarolla mathata
166_0224 steyn delport a fa mmueli
166_0225 le ho senolwa ha sephiri
166_0226 o ka be o amohetse
166_0227 ha ba hlajiwe ke dihloong
166_0229 wa nomora ditlhokomediso le ditemoso
166_0231 ha a ka kgaotsa ho
166_0232 ka e se e le
166_0233 etsuwa ka ho ya ka
166_0234 ka ha ba ne ba
166_0235 ke ne ke le bothateng
166_0237 a lehodimo a matle ke
166_0238 qoqwa ho a tshehwa ho
166_0240 t o rekile senomaphodi ledikuku
166_0242 makgoweng ho ya ntshetsatshebetso ya
166_0243 ho na le mekgwatsamaiso e
166_0244 wa dithako ke hohloka a
166_0245 o bohlile ka letheka maru
166_0246 wa ka eo ke mo
166_0247 nka ka re ke a
166_0248 ha re a phahame a
166_0251 o be o sisinye ditlhahiso
166_0254 great leap forward
166_0255 e re ha a se
166_0256 western european countries
166_0257 baholwanyane ba bananyana e ne
166_0259 e kengwe setempe e be
166_0262 hothwe ke lenqosa le o
166_0263 ya o rekisetsang pholisi pholisi
166_0264 se a sa ba tshepe
166_0265 ha o se o phethetse
166_0267 e ya e honyela o
166_0268 se ho phahlwa ho phothasela
166_0269 re ha ke mametse pina
166_0270 modulasetulo le motlatsi wa modulasetulo
166_0271 e ne e le ntsho
166_0272 ka ho otloloha lenanetataisong la
166_0273 magauta e se e le
166_0274 ka kaho ya institjhushene le
166_0277 mabitso a dibaka la afrika
166_0278 le seroto se sa ribollweng
166_0279 ke re ke moihlwe ho
166_0280 best supporting actress
166_0281 wa tlhware ha di lome
166_0282 se le hopotse ho ya
166_0283 id le ya tshupiso ya
166_0284 karolwana e ntshitsweng koranteng jj
166_0285 a ke ke a hlola
166_0287 african union member
166_0291 a behela ba mmokanetseng a
166_0292 ho teba le ho tsepama
166_0293 ho le mahleke ka hohlehohle
166_0294 phemiti ya ho romela hlapi
166_0295 ke ke a kgona ho
166_0296 joyene e fedileng ha a
166_0297 kaha ho kgaoha ha botho
166_0300 isitsweng ho bafetoledi ba poraefete
166_0301 ho ka be ho se
166_0302 ho le leratanyana le thibang
166_0303 waseithati ya tshepileng ho itshwarela
166_0304 o nwele mahe ha a
166_0305 a tiisa ke a hlapanya
166_0306 lomahantse meno ha ke re
166_0307 holofetseng ba siuwa ba le
166_0308 pokello ya mantle e ka
166_0309 ruburiki eo o e fuweng
166_0310 moputswa sa masumu wa dithako
166_0311 ha ho ya emellwang ka
166_0312 di tshetswe ka nkgo ya
166_0313 ho saena maqephe ohle a
166_0315 pope gregory
166_0318 ho ba le kemedi e
166_0319 ha di le ha bo
166_0320 united nations security
166_0321 eo o ne a kgabelletswe
166_0323 a tlohe tekenikonong ya witwatersrand
166_0326 ho buella setlokotsebe see sa
166_0328 random variable
166_0329 a mesebetsi e ngolwang potefoliyo
166_0330 e utlwahale ha e bope
166_0331 na le tjheseho ya ho
166_0332 a fumanang mohlahlabuwa a arabile
166_0334 ha a ananelwe e le
166_0339 le dipotongwane ho re tshiu
166_0340 diselefounu di nolofaletsa ba di
166_0342 barekisi ba dikoranta ke ha
166_0343 religious organizations established
166_0345 video game console
166_0351 di loketse bomang ba dilemo
166_0352 mo fa matl a fe
166_0353 mooki tliliniking e ka marantha
166_0354 e se e le wa
166_0355 na le leqai le ka
166_0357 academy award nomination
166_0359 ba ngo le cbo ba
166_0360 di poma diterata ka dipeta
166_0361 junior high school
166_0363 buswa le ho laolwa ke
166_0365 hobositsweng ka kgoboso eo ke
166_0366 thajana ya mapungubwe kamorao ho
166_0367 ya ho itshebetsa le ho
166_0368 re se re tsebiswa ka
166_0369 butle ka ho betsa ka
166_0370 ha ho le ba mo
166_0371 ao a ho tshoswa ka
166_0372 ho ka ikopangwa le iucn
166_0373 mokoena akhaonto ya polokelo ya
166_0374 f a ka laelwa ho
166_0375 mohlakeng e ne e le
166_0376 hlwahlwa tjhebelopele le pono e
166_0378 humid continental climate
166_0380 pope paul
166_0381 e ke ke ya leshwa
166_0382 silika e be ho ba
166_0384 di didietse ha di ka
166_0385 e kojwa e sa le
166_0388 ba neba e buela sekgukgung
166_0389 bo ne bo methwe ke
166_0390 mdnb le ho rala mekgwatshebetso
166_0391 orbital angular momentum
166_0395 se thwasang se ke ke
166_0396 a akgetse setipana sesesweu sa
166_0398 re ke a o kgalema
166_0400 ka booker t big show
166_0401 ya boqapi e a nehelwa
166_0403 ha a se a bitsitswe
166_0404 kahong ya maitemohelo thekenoloje le
166_0405 moshweshwe moshwashwaila ya e ba
166_0407 e teletsana ho e henahena
166_0408 ya boitjhoriso ba ne ba
166_0409 international monetary fund le ditheo
166_0411 eo ke e labalabelang ha
166_0412 phetoho phedisanong ya semelo le
166_0413 o tshwanetse ho ba le
166_0414 le ho tshireletsa baletsaphala le
166_0415 atlantic slave trade
166_0417 ho ka ba le ngangisano
166_0418 international olympic committee
166_0419 se angwe ke dikokwanyana lediphoofolo
166_0420 of sa hpcsa e sa
166_0421 phephetso eo re tjamelaneng le
166_0422 ba ke ke ba timelwa
166_0423 le o sisintseng o ka
166_0424 national geographic society
166_0426 ya boqwetha e a roropa
166_0427 e fosahetse athe ya bobedi
166_0428 ba o potapotileng ha ba
166_0429 toropo tokotoko ke eo o
166_0432 hodima a se a re
166_0435 be ke le hlokela tlhompho
166_0436 ba re le dipampiring e
166_0439 ditholo le difofu ho bakileng
166_0440 american nobel laureates
166_0441 ka la moshweshwe moshwashwaila ya
166_0443 cite book author
166_0445 i e tsolo le qumbu
166_0446 ka ho teneha na ke
166_0447 moemanotshi ya ba kabelwamanong ka
166_0448 hehehe ha ke ne ke
166_0450 qholotsanwa ditjhaba di telela le
166_0451 phahla pinyane ere ka ha
166_0452 ho na le tshabo ha
166_0453 e sa le a fula
166_0454 ba ne ba ka qoqaqoqa
166_0456 ka thotsela sa mmedikane ke
166_0461 diforomo ha di fumanehe khomputeng
166_0462 mahlomola boo ke ntseng ke
166_0464 kobontle ya ho apolwa e
166_0466 thunngwa sephakeng a ba a
166_0468 porafete ho ka ipehwa ho
166_0472 ka ncs batlolamolao ba hlahlobilweng
166_0473 ha ke re ho ye
166_0474 e ne e se lefitshwana
166_0476 scottish national party
166_0478 des arts et
166_0479 le ha e le sefe
166_0480 a jwetswa o bonwa ka
166_0482 ke se ke le ntshitse
166_0483 a bofubedu bo botala bo
166_0484 mobung oo ba o kopanetseng
166_0486 hakatsa bahlabani le ho tshosa
166_0487 ya diteropo urban renewal plan
166_0489 re ne re ka ya
166_0490 e labalabelwang ya lerato ya
166_0491 puo e bontshang ho ba
166_0492 moteaphala o thontswe ho ba
166_0494 sci fi channel
166_0495 o hlahlathela felleng o le
166_0496 a re bolella le mahlabisadihlong
166_0497 a na le phekiti ya
166_0500 lekanyetsa e le ho ka
166_0501 a be le thahasello ya
166_0502 national inventors hall
166_0503 be ke tsosa dibata masene
166_0504 o ke o tlohelle ho
166_0505 ho ka ba le kgohlano
166_0506 ha a ne a lwanne
166_0507 le ho kenngwa tshebetsong ha
166_0510 ka tsebiso ya koranta ya
166_0511 o itlama ho se behe
166_0512 tempuweng le ho saenwa ke
166_0513 ba ho re rakgwebo a
166_0515 ya sebele ka puisano le
166_0516 ka motes wa bahlomphehi wa
166_0517 ba be le tjantjello ya
166_0520 be a latole bosehla le
166_0523 ford motor company
166_0524 ya taelo ya tshireletso ya
166_0526 united states president
166_0527 puong ya lapeng ho ya
166_0530 wa tleliniki ho o fa
166_0531 re a amohetseng a re
166_0533 haeba o le bookameding bo
166_0534 manager ka ho ya ka
166_0535 a emetsefeela ho re diphala
166_0536 mongodi o nahanisisa ntlha e
166_0537 qhoba bosiunyana bo le bongnyana
166_0538 le ho hlekefetswa meyeng maikutlong
166_0541 di lese ho ipapatsa ha
166_0544 fekese ha ho se ditefiso
166_0545 di ka fihlelwa ka ho
166_0546 e le le molemong wa
166_0547 tsemashome a robedi ba sebetsahoba
166_0551 ya mophedisuwa e tlatsitsweng foromong
166_0552 international hydrographic organization
166_0555 sa mokedikedi le sa dipidisi
166_0559 e le ha o itshola
166_0560 bolauwe ka sehloho lebakabaka ke
166_0563 ke nku ha a lle
166_0564 o se o hlahisitswebakeng sa
166_0570 re ha le sa mpatla
166_0574 a re ho ya ka
166_0575 american television actors
166_0577 eo a siyang a e
166_0578 di ka sibollwa ka ho
166_0579 ho ya ka le ka
166_0580 ne ba re o thothela
166_0583 o ne o se turu
166_0587 he a tlelwa ke ho
166_0589 a futhumetseng ho tola ka
166_0590 new south wales
166_0591 ka tlung eo le e
166_0592 a be a sa phethise
166_0593 b e ka fetisetsa ho
166_0594 na le letamo le tebileng
166_0596 art deco buildings
166_0597 o bolokolohing ba ho ho
166_0598 ka pelepele boitekong ba ho
166_0601 ke ke wa ba tshwantsha
166_0603 diofisi a se kea hlopheha
166_0604 lamohlolohadienwa ba ritsetsa katlase ho
166_0606 ho ba thodisa se itsheleng
166_0607 british north america
166_0608 o tennwe ke boitshepi ba
166_0609 makwalata e ka fodiswa haholoholo
166_0610 a larile a latetse ba
166_0611 ne o ntshepisa mahodimo le
166_0612 yuraniamo le thoriamo boteng ba
166_0613 ho sebeditsweng lehlaso o be
166_0614 ka se fetolang ka masenenyana
166_0615 tjhakatsa ka mahahapa ke motsofehadi
166_0616 le ba sa ingodisetseng dikgetho
166_0617 ka ha di lokodisitswe tokomaneng
166_0618 ho be le tshwano ha
166_0619 ba ne ba falliswa ka
166_0620 ne a se a inyadisitse
166_0621 lohothwang serapeng sa a a
166_0622 sa jwetswe le ka ho
166_0623 a khompeuta a word processing
166_0624 ho ya ka ho kalwa
166_0625 ke ha ho tjhang ho
166_0626 kgohlopo o ne a ka
166_0627 ba meharo le ho ikgohomosa
166_0628 ha ke a ikemisetsa ho
166_0630 ba kgwathana ba sebaseba ba
166_0631 bonakganyapa a se a le
166_0633 ka bafetoledi bahlophisi le ditoloko
166_0634 ke e kgahlehang tjhabeng se
166_0635 eo a mo fileng matlaya
166_0636 ka ho sotlwa ka ho
166_0638 pope urban
166_0643 ba ne ba ka nyopisa
166_0644 ba ya ba re if
166_0645 seterekeng sa great lakes re
166_0646 lekala le letle la ho
166_0647 ne o nahanneng ha o
166_0648 o ka be o sa
166_0649 e ne e se e
166_0654 ho se tsube ke e
166_0655 di ka mpefatsa letshollo la
166_0656 a ne a mo laile
166_0657 ba vidiyo le ho tsekiswa
166_0658 buella setlokotsebe see sa moshanyana
166_0659 phamola ditsuonyana a sa mmotse
166_0660 ho se tsejiswe lebiso la
166_0661 ka tshwanelo mmoho le phethelo
166_0662 binary search tree
166_0663 le dindaseteri e le ho
166_0664 prime minister tony
166_0665 ka mmadiepetsana watshomong ha a
166_0666 african unity oau
166_0667 ba hwebang ka mebele ba
166_0668 o sa ye secunda o
166_0669 ba ha a na diprotheine
166_0670 dicereale reisi ditapole setampa phoofo
166_0672 ba kgohlanong lemolao ba tobaneng
166_0674 eo a mo ratileng dilemolemo
166_0675 dac doj pansalb saqa le
166_0676 ha o se o bua
166_0677 o le makaqabetsing ha ho
166_0678 re di lwanetseng ka ho
166_0680 khampaneng ee o ne o
166_0681 lekgolo re nyalane ho salang
166_0682 sehlahiswa se phe thetsweng se
166_0684 hlokomoloha ho se tshwane ha
166_0687 e ne e le diketo
166_0689 eo ke mo tsebang ke
166_0690 a le natala tlhware e
166_0691 o ne a o etetse
166_0692 molefi o ke o mphe
166_0693 le kananelo ya leksikhokrafi le
166_0694 ngwahashome ngwahakgolo bapabi le ho
166_0696 a inyalanyang le dipallo le
166_0697 jewish theological seminary
166_0698 le moferefere e se e
166_0702 se ho kgwaphohile ho potlakela
166_0703 ruri e ne e le
166_0704 lekgotleng le buletsweng bohle la
166_0705 ba ditekesi ha ba kenye
166_0706 ho ya ka molao wa
166_0710 thokonyana ho maseru wa qwading
166_0711 kgosto nkabe ke re llang
166_0712 ne a sa rerisa malomafodisa
166_0715 ka ho se je hnatle
166_0718 mohobelo a b kgoro ke
166_0719 ke ba tshebeletso ya databeise
166_0720 a ho ba bothateng bo
166_0721 ha a itlhompholle ka ho
166_0722 ya ntsotellang e le ka
166_0723 sa roleleyathunya o ne o
166_0724 ke letlaka haufinyane ho fetafeta
166_0725 e ne e kenyelleditswe ho
166_0726 sa rutehangbafola difemeng ba rutehilengba
166_0727 dikele leotlile letswapo le ka
166_0728 carl friedrich gauss
166_0730 melbourne football club
166_0731 botoloking ho leksikhokrafi le mareong
166_0733 o molokoloko ha ho diratswana
166_0736 o motsumi wa meya ya
166_0738 shwalane e se e tshwere
166_0740 ho ke ho kgutlwa re
166_0741 motjodi o tono se sephatswa
166_0743 ke mahodi a patile maeba
166_0745 short story writers
166_0747 ya phetiso le taolo ya
166_0748 ka tjhepisi ya stimorol e
166_0749 o imme ya nyarosa kgwapo
166_0750 lifetime achievement award
166_0751 international space station
166_0753 ba ramautla ba re etsisang
166_0754 polasing le menontsha e na
166_0756 tlatsa dikgeo ka mahokedi a
166_0758 northern mariana islands
166_0760 judase ha a ne a
166_0761 ne e le phephetso e
166_0762 saint john river
166_0765 mmatoko o ne a se
166_0767 traditional chinese medicine
166_0768 fetolwang ka ho ya ka
166_0769 baithaopi le ba sebeletswang ke
166_0771 american film directors
166_0773 se ke la ntlhobaetsa ke
166_0776 states national film
166_0777 be ho sa ba le
166_0779 re iqeke emoholo esere ra
166_0780 palo eo o e kopang
166_0782 ba phetelana ditshomo ho itlosa
166_0783 ya boshodu ho tjhwatlwa ha
166_0784 european economic community
166_0785 ba ba tshwasehe kutlwisisong e
166_0786 e otlolohileng le ha e
166_0788 mamela ka tshetshefo ka sepheo
166_0790 makwanyane o ne a sa
166_0792 le ha ho le jwalo
166_0793 ke re ke se ke
166_0794 a tshwanetswe ke ho ka
166_0796 matshwenyeho ao ba teaneng le
166_0797 re be re tsohe le
166_0798 ke no ebola tapole habedi
166_0799 latetswe le ha e le
166_0800 e re ha mafube a
166_0801 thero le mo kgoqola le
166_0802 ka ya kankere le ho
166_0803 kgalemetswe le ha e se
166_0804 nkgwebetha la re ke le
166_0806 tu ha kgahliso a mo
166_0807 a molaotheo a mosebesetsi wa
166_0808 le lehwatatanyana le saballetse ho
166_0809 cognitive behavioral therapy
166_0810 ba buisanang qotsong e ka
166_0811 mmusong wa provense ya freistata
166_0812 ho be le ho senolwa
166_0814 eastern orthodox churches
166_0817 ka ditlha ho kgontsha ho
166_0820 wa setlokotsejana a se a
166_0821 boikara belo ba motlolamolao ho
166_0822 se bolelwang ka ho kgethela
166_0823 o ne a ye a
166_0824 asebesetose e se e emisitse
166_0825 le phethelo semelo sa baphetwa
166_0826 eo o se o qalelletse
166_0827 re o tshwenngwa ke ntaramane
166_0828 e metjha ya sekimi ke
166_0829 le ho rutweng titjhere e
166_0830 meralo diqeto le kameho ya
166_0831 tjhee ke ne kekopa matlaa
166_0832 bohloko ba seeta bo utluwa
166_0833 ba loketseng ho ka lekolwa
166_0835 o ne a ka bellaellwa
166_0837 ho ka fefolwa ke difefonyana
166_0840 faeba tlelase patsi le seili
166_0841 united states military
166_0844 lekala la ho ithuta la
166_0848 o se a nyetswe ke
166_0849 moshaneso ha ke re o
166_0852 sa ho entela feberu e
166_0853 bontsha ho ba sedi mehopolong
166_0854 o ne a mofilwe ke
166_0855 new york times
166_0856 a se a suthile a
166_0857 e ithutwang ho isa puong
166_0858 be a mo lohetse mano
166_0859 new age movement
166_0860 australian prime minister
166_0861 ke wa ba wa di
166_0862 se bolele o be o
166_0863 le ho ya ho e
166_0865 a porafete ho ka ipehwa
166_0868 ba ho kgeswa le ho
166_0869 o ne o nyekilwe ke
166_0872 di bopella kahare ho ditekanyetso
166_0873 a tiise le qhelele ka
166_0874 ba le kgaolo e ke
166_0875 a kgwehla e e ka
166_0878 hoa ho a ka ba
166_0879 o ne a re ba
166_0880 re imatahantse le banka ya
166_0881 a fumanwang ho bomarabe ke
166_0882 se kgopisehe o se hlekefetse
166_0885 ruburiki ho na le ho
166_0886 ba ka tsheptjwang ke ba
166_0887 mabone ya bohlophisi ya ho
166_0888 ka bobare ho ya ka
166_0889 accurate date information
166_0890 e fuphula sa phakwe tsuonyana
166_0891 ndoh le etseditswe ho etella
166_0892 le se ke la ya
167_0002 sekametseng ho tshabiseng ka ho
167_0003 ya ill e na le
167_0004 e thehilweng bodumeding le dihlopha
167_0006 ho re ba re kwetletse
167_0007 ho ya bosoleng ho ya
167_0014 sa ka ka ba le
167_0016 na ntwa e ka fetelletsang
167_0020 ho eteletsa le ho ntshetsa
167_0024 ho ya ka pilir o
167_0025 mmasepala o ne a sisintse
167_0027 nehawu le psa e le
167_0030 award winning authors
167_0034 treaty organization nato
167_0036 medicine price list mpl le
167_0038 a teetswe hare ke ditsietsi
167_0040 ya pa role ya ho
167_0042 world trade organization
167_0043 sethetsabadisana ha ho bolelwa banana
167_0050 k h r mapenshenara le
167_0051 toko ha o mamele se
167_0054 ka nqeng ya ho kwetelwa
167_0056 esele ke a o nyonya
167_0059 dikhabinete ho betla mapolanka ho
167_0061 cup winners cup
167_0071 royal australian navy
167_0083 my nou te doen staan
167_0085 ho natefelwa ke dingolwa e
167_0087 joint initiative on priority skills
167_0088 e a amoheleha ya ho
167_0089 ha o hlajwe ke dihlong
167_0092 tshwaetswa ke hiv le aids
167_0095 r j r masiea e
167_0101 president theodore roosevelt
167_0104 ho re na e be
167_0106 kenang toropong e ne e
167_0111 ha ho ka ke ha
167_0114 o a bonahaletsa o ke
167_0119 a ho kholomo a le
167_0126 mo hauhela a re ho
167_0127 electron degeneracy pressure
167_0130 phetwa e be mmohi o
167_0131 e na le ho re
167_0132 mosha o ne a ba
167_0133 o ne a dutse ka
167_0134 na e fela o arabile
167_0136 rugby union team
167_0139 le dikopanong le dipitsong le
167_0140 ke tshepo ho aubuti thabang
167_0143 re a thaba ha ho
167_0144 e ba ho na le
167_0149 ha a ka a arabela
167_0154 tswelapele ho tobana le dipephetso
167_0158 internet service provider
167_0159 didumatshwano le mepeletotshwano mahlalosonngwe malatodi
167_0160 le ananela botebong ba maikut
167_0161 la poraevete ke na dipuisanong
167_0166 dikoduwa le matsholo a ho
167_0169 ha ho ne ho itswe
167_0170 puseletso e se kenyel letsang
167_0171 hule pay as you earn
167_0172 leke ho mo nyokola ha
167_0174 b le ho ya c
167_0175 ka bomadimabe khampane ya boabiele
167_0182 di ka be di thibetswe
167_0185 memorial park cemetery
167_0186 botoro le tjhisi mabejana difeme
167_0191 intelsat nonsignatory user
167_0194 le lefubedu t w d
167_0202 wa tsoseletso ya boitshwaro o
167_0205 ya cashier e be o
167_0208 be wa ba wa mo
167_0210 roman catholic priest
167_0211 failed verification date
167_0215 ka ho re o mo
167_0216 t a ba a mo
167_0218 canadian pacific railway
167_0219 balehang ho bebofaletsa motshwai ho
167_0221 re ditaaso di tshela mmila
167_0223 mofubedu o phatsimang le ha
167_0224 alexander graham bell
167_0226 v v mmapelepele e ne
167_0229 polish lithuanian commonwealth
167_0230 ruuwa le ho laolwa ka
167_0233 arohana tjeee se e le
167_0236 mamelang ithuteng ho ithaopola ho
167_0237 ka ke se ke le
167_0241 natural history museum
167_0242 amino acid sequence
167_0244 be a se a qwaketsana
167_0248 e ya hola le ho
167_0252 le ha ho lekwa ho
167_0253 mbm ditso di ka una
167_0255 eo o e utlwisisang o
167_0262 ha o tshila oke ke
167_0265 wa karaburetso o fuperweng meleng
167_0266 a sa le monnyane dilemong
167_0268 kaofela ha di se di
167_0270 eo ke e hopolang ha
167_0272 elite group included
167_0275 irish free state
167_0276 gross state product
167_0279 re ne re qala ho
167_0281 wa ka o se ahlokofaditse
167_0283 german democratic republic
167_0285 bo hlakileng ba ho kgwaritsa
167_0286 le kokwanahloko ya ya kholera
167_0287 la department of environmental affairs
167_0291 ya motjha o tjhele ya
167_0293 ne ke se sengangele a
167_0297 marangrang a kgokano le tshebedisano
167_0302 social democratic parties
167_0304 ha ho tshwanelehile o ka
167_0305 mo rekele masela le tshwele
167_0306 ho teko ho o tl
167_0311 van der waals
167_0315 ha o le mokapotene wa
167_0316 ha re kwaleng mmaraka wa
167_0317 ya mo sikarong le ho
167_0318 ba ka ha ke sa
167_0321 opereitara ya seteishene le d
167_0323 community based natural resource management
167_0324 e ntenang ka ho fetisisa
167_0325 second vatican council
167_0327 orange free state
167_0328 o e fuweng ho tshwaya
167_0329 pheleu v o ne a
167_0331 eo ho ka kgelohwang ho
167_0332 e a tsitsipana e honyele
167_0334 le ha di sa utlwisisehe
167_0335 british royal navy
167_0336 ha o ka tlohella ho
167_0337 ha a ne a na
167_0338 di phahamiswe le ho ntshetswa
167_0339 e ka letlwepe la masumuathebotsho
167_0341 ha bo yo ha ho
167_0342 bo weso ka ho ja
167_0344 e lohothwang temaneng ya i
167_0345 second boer war
167_0348 ne di mathile mantswenga hlahlalebajwadi
167_0349 ya mmuni ya ho bokelletsa
167_0350 le ditlontlollo re ka phelahamonate
167_0351 momahano cohesion ketso ya ho
167_0353 ha di timanwe e se
167_0354 mosi o ka kubellang ho
167_0355 poere ya kheri matswai a
167_0356 a kgolwao potile le ha
167_0357 wa ilo wela matjoing kwana
167_0361 king james version
167_0363 e ka ha ba ka
167_0370 ba ratang papadi ya bolo
167_0371 ha a ne a hlolwa
167_0373 following table shows
167_0376 bokolone le apareteite a bakile
167_0378 eo ya diflete le c
167_0379 ha ho se ho ngangisanwe
167_0381 o ke ke wa tshwengwa
167_0384 ke re re le bolelletse
167_0387 ho ya ka tshisinyo ho
167_0390 coptic orthodox church
167_0391 na ke ya mannte le
167_0393 vene ho ne ho le
167_0394 e momohaneng e lebisang tlhalohanyong
167_0395 ke di phehileng ha a
167_0399 maafrika a thabiswa ke ho
167_0404 designated service provider dsp dsp
167_0408 b na o ne o
167_0412 ho se ho fetile beke
167_0414 le dierekisi cauliflower le broccoli
167_0418 ha se ditlhong le manyofonyofoseroki
167_0419 ka ha ho lebeletswe ho
167_0421 ho thwenge atile le ho
167_0425 a seke a ikobela boitlamo
167_0427 e le e qabolang e
167_0431 dulellane le ho inanatha ha
167_0432 o ie ditsietsing o ie
167_0433 ya akademiki ya learnership ka
167_0434 sa dibasari ka ho ya
167_0444 se e hlomamisitse di nlb
167_0445 e sebedisitsweng metareng wa dikarata
167_0450 ha a ikwahlahe ha a
167_0451 o ne a ka ya
167_0452 unesco world heritage
167_0454 utlwe ntlhakemo ya ka tabeng
167_0455 new york jets
167_0457 middle high german
167_0458 o ye a re tselakgolo
167_0459 bolela haebe o kile wa
167_0460 ba mo furalletseng ha a
167_0462 di a bulelwa le ho
167_0468 ho diphaka ho dihlathe difubeng
167_0469 united states national
167_0471 ba ne ba sa ba
167_0472 le baetapele a re qaleng
167_0473 e o lemosa ka ditleleime
167_0474 e ya nahanelwa leanong la
167_0475 erekaha a ne a sa
167_0476 nebula award winning
167_0478 mies van der
167_0479 ba sa emelwang ho ba
167_0480 h o amana le e
167_0481 motsaneng wa menkgwaneng ho se
167_0482 supang qotso di a bulwa
167_0483 sa a ha se ame
167_0486 nkimisitsenghobane a ne a re
167_0489 diofisi a se kea hlopheha
167_0490 lamohlolohadienwa ba ritsetsa katlase ho
167_0491 apartheid ha ba a ka
167_0492 ho ba thodisa se itsheleng
167_0493 british north america
167_0494 o tennwe ke boitshepi ba
167_0495 makwalata e ka fodiswa haholoholo
167_0496 a larile a latetse ba
167_0497 ne o ntshepisa mahodimo le
167_0498 yuraniamo le thoriamo boteng ba
167_0499 ho sebeditsweng lehlaso o be
167_0502 le ba sa ingodisetseng dikgetho
167_0504 ho be le tshwano ha
167_0507 lohothwang serapeng sa a a
167_0508 sa jwetswe le ka ho
167_0509 a khompeuta a word processing
167_0510 ho ya ka ho kalwa
167_0511 ke ha ho tjhang ho
167_0513 ba meharo le ho ikgohomosa
167_0514 ha ke a ikemisetsa ho
167_0516 ba kgwathana ba sebaseba ba
167_0518 e batle hang di haella
167_0520 ke e kgahlehang tjhabeng se
167_0522 ka ho sotlwa ka ho
167_0523 ka a mamellang masawana a
167_0524 pope urban
167_0526 se le fatshemoo sa mo
167_0528 ya emellwang ka sepolo ho
167_0530 ba ya ba re if
167_0532 lekala le letle la ho
167_0533 ne o nahanneng ha o
167_0536 lefiswang le ha ho le
167_0538 ye a re ha ho
167_0539 le phekolo e tliswang ka
167_0543 ba vidiyo le ho tsekiswa
167_0544 buella setlokotsebe see sa moshanyana
167_0546 ho se tsejiswe lebiso la
167_0548 binary search tree
167_0550 prime minister tony
167_0551 ka mmadiepetsana watshomong ha a
167_0552 african unity oau
167_0554 o sa ye secunda o
167_0555 ba ha a na diprotheine
167_0559 mo qwaya a ba a
167_0563 o le makaqabetsing ha ho
167_0564 re di lwanetseng ka ho
167_0567 lekgolo re nyalane ho salang
167_0571 sebediswa bakeng sa tsamaiso ya
167_0572 ya silikha le silikhosis ke
167_0573 e ne e le diketo
167_0575 eo ke mo tsebang ke
167_0577 o ne a o etetse
167_0580 ngwahashome ngwahakgolo bapabi le ho
167_0583 jewish theological seminary
167_0585 ka maafrikaborwa re na le
167_0588 se ho kgwaphohile ho potlakela
167_0591 ba ditekesi ha ba kenye
167_0593 ho iketsetsa kuno le diprojeke
167_0599 ya hlabehang a hlabehe eitse
167_0600 na ha ke re ke
167_0602 independent media diversity trust ha
167_0605 tlisitsweng ke bokoloniale aparteite le
167_0607 nkga a re phu ke
167_0608 science fiction fandom
167_0609 lossless data compression
167_0611 ba srsa ho ya ka
167_0612 be o itheola seriti ha
167_0616 ikamahanya le ba reretsweng ditaba
167_0617 founung botoloki ba founu bo
168_0003 nakwana e re nengneng a
168_0004 ha metjhini e se e
168_0008 ho na le bosara bo
168_0009 o sa re natsa ka
168_0011 president barack obama
168_0012 e tebileng ya phetolelo dipuong
168_0014 ke sefeng se re tlisetsang
168_0020 ho kgwathwa ha konopo ya
168_0022 states armed forces
168_0023 jwaletjena o ne a se
168_0030 o ye a re ngwanamahana
168_0032 o se a re ptjangptjang
168_0033 otto von bismarck
168_0035 le barwetsana ba a ba
168_0036 ya sa di hadikelang ho
168_0045 ho bafani ba tlhokomelo ya
168_0046 application programming interface
168_0047 ho ya ka kutlwusiso ya
168_0049 soviet socialist republics
168_0050 se kgwatha senare sa katara
168_0051 mohopolo o hlahisitsweng moleng o
168_0053 e qaqisitsweng sehlomathisong sa a
168_0054 le ya metjhining e betlang
168_0055 di bapisa ie ho di
168_0056 captain james cook
168_0059 sekiri sa ho hama e
168_0061 re ka ha ditifikeiti di
168_0062 o ke ke wa kotjwa
168_0064 ditonele dikwari le ho ripitlwa
168_0066 ke mo tshabang ho nkgisetsana
168_0068 mo rekela motjhini o rokang
168_0070 kgutsitse tu yaka ha ho
168_0071 e se e le morwetsanyana
168_0072 o ne o se o
168_0074 internal combustion engine
168_0075 eo ha a palama a
168_0077 le lera la lefufuru lefufuru
168_0078 ho lebeletswe ho ya ka
168_0083 ba mohlomphehi seeiso mohai slp
168_0084 coronary artery disease
168_0087 ha a se a bolaile
168_0088 nuclear weapons program
168_0089 o ne a lebohuwa ka
168_0092 a lohilweng ka therisano le
168_0093 ba kwetliswang le bakwetlisi bakwetlisi
168_0094 boholoholo ho ne ho na
168_0095 sa ba utullang dipatilweng ho
168_0098 mahlaba ha ba mmolella ho
168_0100 ba ngodise sehlopheng sa bolo
168_0101 le se ke la nkella
168_0102 le ka la re arohanyang
168_0106 church turing thesis
168_0107 asian financial crisis
168_0109 studio le setsha sa transmishene
168_0111 a se tlohellwe a ntshe
168_0114 o mogn oo ba o
168_0115 soviet red army
168_0116 early church fathers
168_0119 la re ke le nyaye
168_0120 ha e a ka ya
168_0121 re ke mo hloile hampe
168_0123 he e ye e mmalehele
168_0124 berne convention berne convention ke
168_0126 metal gear solid
168_0129 ba matshwele a baqobelli ba
168_0130 ke thabele manyofonyo ao o
168_0132 ya deedsweb ka ha ho
168_0135 ho tliswa ke tshebedisanommoho e
168_0140 mosuwehlooho a ne a mema
168_0142 british armed forces
168_0144 ho re senolela mofehelo ya
168_0145 ha ke a re ke
168_0146 ba di faetseng makgistrata a
168_0147 hlomamisa dikomiti ho ya ka
168_0150 le ba ma komonisi le
168_0151 le ho ja re sa
168_0154 e phethahatswe le c nkela
168_0159 sa lepoqo ha se kgutse
168_0161 ne a ye a sadise
168_0163 tu ka ho panya ha
168_0164 ba di je ba ke
168_0167 ba tsheletseng ba thontshweng ke
168_0168 na e be le a
168_0169 ne a sa itlwe ka
168_0170 ba nebasena boipuello o ne
168_0171 re o kgopo le ho
168_0172 se o fihletse qeto eo
168_0175 wa bodumedi gospel o sa
168_0176 established diplomatic relations
168_0177 e ka hirisetsa khamphani ya
168_0178 le phumantso e ntlafetseng ya
168_0180 e sebeletsang e ikaraballang ho
168_0182 ho ekets boikgathatso ba ho
168_0183 le ho nkelwa dikoloi ha
168_0184 o ntshofaditsweng a na le
168_0185 ho buuwang ka yna e
168_0186 sa khiro se saennweng ke
168_0188 o qeta o be o
168_0189 sekete ya thelevishene e kwalehileng
168_0191 thesela mmadikotwana eo malekupa a
168_0192 a ba a ba a
168_0194 ke tsosa dibata masene ha
168_0196 o e tlamella lekaleng o
168_0197 economic cooperation apec
168_0198 oriental orthodox churches
168_0199 ho ewp e be ba
168_0200 le ditswejane ho le mathisa
168_0203 a ne a ntseabua ka
168_0207 ba hlokahalletsweng ke bahatsa ba
168_0210 dingaka di be di phethile
168_0212 phousetara e shebehe e le
168_0214 dikobo le ho mo busetsa
168_0215 he ha e le mo
168_0216 human development index
168_0217 pope benedict
168_0218 tharo a b le c
168_0220 ao o sitwang ho a
168_0224 ya mo nyalang ha rakgadiae
168_0227 setereka sa maseterata wa pretoria
168_0229 le sa kgetheng mofo ho
168_0231 e ne e le sephankgahadi
168_0232 ka ho re ho na
168_0233 tshwaretseng sa boto se sa
168_0234 ya tswalehileng ya hotseng abokotswa
168_0237 o so ka o fetolelwa
168_0238 north atlantic ocean
168_0239 o ka re sethothokisi se
168_0240 di re ke sonasesosa sa
168_0241 final resting place
168_0242 ba ke re o nkgumamele
168_0243 a le d e le
168_0245 current account deficit
168_0246 le ntatemoholo mmamaema le ramaema
168_0247 diteboho ho metswalle le bomphato
168_0248 tsepamisa maikutlo haholo mopeletong le
168_0250 e se e tshwere o
168_0251 ne e le moetlo o
168_0252 bomenemene le ho hokahana ka
168_0253 ka beile le ya ho
168_0254 ba dikgotswana ba se ba
168_0258 matjhabeng e ye e be
168_0259 tsejweng ka kgalaseng eo motaung
168_0260 e theohang panama o inyanyaditse
168_0265 ne a mo phedisa ka
168_0266 lkhansele ya aforikaborwa ya diporofeshene
168_0267 peo eo a e jetseng
168_0268 eo o e kopileng o
168_0271 fihle matsohong a eo le
168_0272 soviet socialist republic
168_0275 ha o sa itlhokomele o
168_0276 a radieishene yuraniamo le thoriamo
168_0277 new york stock
168_0278 ba ne ba thabisitswe ke
168_0279 ya ka ngodiswang e le
168_0280 ho itshepa le ho ba
168_0281 mo hemela a ba a
168_0282 a ka bapiswang le a
168_0284 ne ke se na boikgethelo
168_0286 mmadimpho siko ke re ho
168_0289 ya ba ya saenelwa ke
168_0291 zermelo fraenkel set
168_0293 ha re di bolellwe re
168_0295 e ahang e buang ka
168_0296 ba e tjhaelwe monwang ke
168_0304 modern operating systems
168_0305 ya ho ya ho e
168_0306 le ho se tshwane ho
168_0308 e bapetsweng ke moporesidente wa
168_0315 condensed matter physics
168_0318 e be badumedi ba lahle
168_0319 le dibohodi di kgothaletswa ho
168_0321 e ka hlabeha qetello ya
168_0322 o se o lahlehelwa ke
168_0323 ba tshwasehe kutlwisisong e mopatisane
168_0326 be a se a e
168_0327 ba rutwe le ho rupelwa
168_0328 khamphaneng ya marematlou holdings ba
168_0331 early middle ages
168_0333 o ka itahlelang lemeneng la
168_0334 d ho ikopanya le difedereishene
168_0335 ne ba itjella bolokwe ba
168_0336 ku tlwisiso e kgabane ya
168_0337 demokerasing e kgonang ho ipeha
168_0339 eo o se o e
168_0340 a re o mo ja
168_0341 lenaneo la ho pepa le
168_0342 ha ba qhekelle ha ba
168_0343 ke ha ba nwabeleditse ba
168_0345 provenseng eo ha ho se
168_0346 e le le etelletseng tlhaselo
168_0347 moelelo sekaseka le ho hlalosa
168_0349 na le boikarabelo ba ho
168_0350 states presidential candidates
168_0352 o se a theohile a
168_0353 o e fetolele ho lekgathe
168_0356 lofe a ka hlolehang ho
168_0358 sehlahla ke phetho ke tu
168_0359 hard disk drives
168_0360 le leamanyi o be o
168_0363 ho se ho le tjena
168_0364 union member states
168_0365 java virtual machine
168_0368 ba le utswe ba le
168_0373 e tswalang ho foforeha ha
168_0374 le lekgetho le o phumaneho
168_0378 di ka o hapisa moqhaka
168_0379 tjhefu dijong le ha ho
168_0381 ikemisetse ho reupella le ho
168_0383 baromuwa ba ncop ba ka
168_0384 re a se ke a
168_0385 a mamel wa le ho
168_0386 grammy award winners
168_0388 ba hlophisang dimmapa le mahlasedinyana
168_0389 o be o se o
168_0390 tlhokomeloi ya boalosi lehaeng la
168_0393 o ne aikemiseditse ho ya
168_0394 loreal age perfect ke ditlolo
168_0395 bukeng ya ac jordan e
168_0396 ya thitelo ha mantshele motaung
168_0402 o ne a na ie
168_0403 o re ke dikwata dibusenga
168_0404 married couples living
168_0405 ho fokollwa ke boitswaro ho
168_0407 eo a se a kgutsitse
168_0408 butswe le ho butswa ke
168_0409 hlokomedisa ka bobe le bokgopo
168_0410 ne e fupere le ho
168_0411 ho re ho be le
168_0412 internal combustion engines
168_0414 national science foundation
168_0421 ya ho theolelwa le ho
168_0422 human rights activists
168_0423 ka masakaneng o be o
168_0424 barata ho nkeletsa ho phahamisetsa
168_0425 seemo se selelele ya raohileng
168_0426 se ke wa tshaba ho
168_0427 moscow state university
168_0435 sa bosuwehlooho ke se tjhesang
168_0436 a le holena la meutlwa
168_0437 ba leloko le metswalle ho
168_0439 tsabosetjhaba le ysa profense di
168_0440 e kalo ka r e
168_0441 valence bond theory
168_0442 le lequlwana la dinokwane le
168_0443 poello ha o beeleditse ho
168_0448 o hanana le ho re
168_0449 hlanya ho ne ho batleha
168_0450 na lepato le ka tswelang
168_0451 ho ba bahlopholli ba peo
168_0452 qhekella mofumahadi wa morena ramoroko
168_0453 e se be eo mmate
168_0455 le ha e le se
168_0456 ke bosotho nthwese kola sa
168_0460 baobab baobab or adonsonia digitata
168_0461 ne e fifaditswe ke mobu
168_0462 se e le lesupi ho
168_0464 ho lefela ba porofeshene ya
168_0465 sa ratweng ha ke re
168_0466 castel sant angelo
168_0468 beleha le ho adoptha ho
168_0469 orutamekgwae loketsengbatho babaholo o be
168_0470 la tiiso ka e meile
168_0471 di tshwauwe pampiring eo di
168_0472 ho na le se ka
168_0473 itebohela ha ke sa ka
168_0474 ba matriki di se di
168_0476 ho ba moruti wa kereke
168_0480 qotsitswe le ho lokiswa ho
168_0481 se qaqolohane ha se a
168_0485 e ka ba ao e
168_0486 medieval islamic world
168_0487 ho nahana le ho amohela
168_0490 ho itlhahisa ka kutlwelobohloko ho
168_0491 setefikeiti sa boingodiso se ntshwa
168_0493 e tswang ho nac ho
168_0499 a shwa ke a ikepela
168_0500 ho nyahama ho ka bakwang
168_0501 le hlahe ho o fa
168_0506 le yena o ne a
168_0507 ha o le mokana o
168_0509 e ka makotikoting le e
168_0510 chinese new year
168_0512 tikolo ya karolomoruo eo e
168_0513 ha e hate ka maro
168_0514 re kopantse se fella hona
168_0515 tshepisane a se ke a
168_0516 ba hatellwe ka ho tingwa
168_0517 ya mosuwehlooho ho ya utlwahantle
168_0518 ba bokgotsing ba ke ke
168_0520 american film actors
168_0521 dipale le ha e le
168_0522 wa emalahleni mof malatjie o
168_0524 e se ka diketso ke
168_0525 a ha ho na le
168_0526 monnae a mo atametsa ho
168_0528 e nngweentlee mo susumeleditse ho
168_0530 le bojuta le bokreste re
168_0532 bapiswe le tshupamolato eo ho
168_0534 different ethnic groups
168_0537 a lora a haola meruemetala
168_0538 ka ha e ne e
168_0539 roka le ke motjheso walehlabula
168_0540 lero la morara le monyang
168_0541 ba ba ba nkana ka
168_0542 eo o ne a lahlile
168_0543 e ne e bapalwa ke
168_0546 a ke o re phetele
168_0548 a ho tshwaetsa ho phatlalletseng
168_0549 ba ath party
168_0550 e re ke lebe ka
168_0551 british prime minister
168_0552 o tehele mohlalanyana o mosesane
168_0553 ha e sa le tjhatsi
168_0555 world health organization
168_0556 green coffee beans
168_0557 ho na le ho honyane
168_0559 american science fiction
168_0560 theoha koloing ya baeti seteishening
168_0561 ho kgabisamola oo ka ho
168_0563 ho na le sefifi sa
168_0564 lekotsi e kieng ya etshahala
168_0565 world s largest
168_0566 ba e emetseng ke e
168_0568 wakgahlwa ke lefiso la metsaneng
168_0569 dihlongwapele mantsweng ao o a
168_0570 mmankepe bo totiswa ke ho
168_0571 e le homeritshana e meputswa
168_0572 e kgethilweng ya bamamedi ba
168_0574 a ka lesaka ha ke
168_0575 ha o ka kgethelwa ho
168_0578 utswe ha ba qale leshano
168_0579 e qadikaneng ya ho kgaketsa
168_0580 ya diahi ho nhbrc le
168_0581 difounu le difekse le ho
168_0584 kelereko mantsha o a mo
168_0589 re ho a be ho
168_0591 be a qetelle a sa
168_0594 e ikitlaleditse ho o fa
168_0595 ke re ho ye ho
168_0596 re lehola ha le jalwe
168_0597 a ipatile ha moruti ke
168_0598 ho a tlama ho tlatsa
168_0599 ya basotho ho ne ho
168_0601 ba sa tswafe ho e
168_0603 le tjhabile le monatjana ho
168_0606 fihlellwang ho e na le
168_0607 ba se ba e kolla
168_0608 ntlhahetseng ha se tabatabelo ya
168_0609 iowa state university
168_0611 sireletseha ha ho ka etseha
168_0612 ba ramotse tikolohong ya heso
168_0615 fact date july
168_0617 ke ka lebaka la eng
168_0618 le ho re ho tshabanwe
168_0619 wa mahindu ho hatellwa difeleng
168_0620 autlwe ho bolediswa bokweta bo
168_0622 le ho ikemela ka hohlehohle
168_0625 eteleditsweng pelepele di rerile ho
168_0628 di apostille certificate ke ditifikeiti
168_0629 le ha barata ho nkeletsa
168_0630 le manyofonyofo a swabisang tsama
168_0632 ho boetapele ba mokga o
168_0638 ha ke re fara ho
168_0639 ne a sa dumellane le
168_0640 chinese communist party
168_0641 ke se ke ka mo
168_0642 rometsweng ka fekse di ke
168_0645 diphofu ha ho sa fihlelwa
168_0646 episcopal church usa
168_0649 di close corporation di partnership
168_0651 ho itwanela ka ha a
168_0652 kojwana di mahetleng le ba
168_0653 ho baeletsi ba botegniki ho
168_0655 ba mo memetse meketengle dikonsareteng
168_0656 a fihlang bokgutlong ngongoreho ya
168_0661 ha ke ya ke shebile
168_0662 pope pius
168_0663 leqwetha a sa re o
168_0666 se ke la ba la
168_0667 rateng le ha ke re
168_0672 e ye e re ha
168_0675 kepa a rola katiba a
168_0676 be re be re aha
168_0677 akhaonto eo o ka bolokang
168_0680 ya terre firme ka ho
168_0681 venice film festival
168_0684 a nwe ho faswa e
168_0686 karabelo ke ha afihla ho
168_0688 bonngwe ka bonngwe haele mafiritshwana
168_0689 o be o di ngole
168_0690 ya kgoholeho ya monu ii
168_0691 o mobe o sa rateheng
168_0693 ho phahama le ho theoha
168_0695 ke a ikemisetsa ho pheha
168_0696 wa porovense wa kgauteng ka
168_0698 ha e le bo le
168_0699 e le engwe ho na
168_0702 le ho ruruha ha manonyeletso
168_0704 ohio state university
168_0705 e rabella ka sabole ho
168_0707 mananyetsa o ne a ikgakantse
168_0708 ka kotloloho le ho kgutliswa
168_0710 lekile ka makgetlokgetlo ho o
168_0711 riemann zeta function
168_0712 matlong a rdp ho a
168_0713 wa ho fepa le ho
168_0715 o mula nthwane ya se
168_0718 dikharikhulamo di na le ho
168_0721 metsing he motswalle ha ke
168_0722 ka ba le tshusumetso e
169_0002 million years old
169_0004 ho ke ke h a
169_0006 le ho epolla bokahodimo bo
169_0007 romellwa melaetsa e mo hlekefetsang
169_0010 motjhine o ne o se
169_0011 e lokelwang ho tshohlwa ke
169_0012 ka sekgethe ha ke ne
169_0013 la monnae lebaqolotsi o ne
169_0015 ha o no tlohelwa ho
169_0016 maipato e ne e le
169_0017 beehetswe ka thokobakeng sa ho
169_0020 le re fihlise re bolokehile
169_0023 ha re re re qhwaolla
169_0024 mario kart
169_0026 ho rora ha helikopotara e
169_0028 profeshenale wa bonono ba tshwanelhileng
169_0031 le kgothalletse boinehelo le boikitlaetso
169_0034 idimola kgafetsakgafetsa e le mopoto
169_0036 formal diplomatic relations
169_0037 carnegie mellon university
169_0038 e a behelwa ho o
169_0039 le malwetse a sa feleng
169_0043 a re o ikgutlisetsa o
169_0045 ba bamemuwa makhing wa bahlomphehi
169_0046 se kgethollang makasineng se bolele
169_0048 kgutshwane bahlahlobi ba lekodisise hantle
169_0055 primitive recursive functions
169_0056 early iron age
169_0057 di springbok ka ho ba
169_0058 e ne e le seqhenqha
169_0059 ya turfloop mekete ya ho
169_0060 ben nene o amohetse kgau
169_0063 o se a e kgwathile
169_0065 ba se ba saletsweke dikgwedi
169_0069 eoya ka a ko mpolelle
169_0072 fundamental physics concepts
169_0073 ho oo ho fellwang ho
169_0074 ho totobatsa ditso le dikamano
169_0075 nnyeonyeo o bitsa lebitso la
169_0076 mahlale le theknoloji ho ka
169_0079 operation iraqi freedom
169_0080 se ka susumetsang babadi ho
169_0081 na bontate ba dumelletswe ho
169_0083 ka lengope kgidi ya boi
169_0086 jewish american writers
169_0087 ha di a tshehetswa ho
169_0088 ka eo le re qhoshetsang
169_0089 lebelwe e ne e le
169_0090 ba ke ba ba ithaopela
169_0091 ne re ya ka nnqeng
169_0093 wa yunivesithi le molemong wa
169_0094 a tsweretse mahlo ao bofubedu
169_0095 e a apesitse ho phema
169_0096 ya pdf ya phr e
169_0098 narrow gauge lines
169_0101 boikutlo boiketlo le ho o
169_0104 le tsietsing e tshabehang ha
169_0108 ne ho ithabiswa ka metjeko
169_0110 e bapetsweng ke mopresidente wa
169_0115 ho kgutleha hlakoreng la methepa
169_0118 la bataung traders qwaqwa ke
169_0120 ho se ke ha lwanwa
169_0126 clarify date march
169_0127 ka kotlo difaene le dikotlo
169_0130 ya ho suthiswa ha baipehi
169_0133 green bay packers
169_0135 ripoto eo e se e
169_0137 wa matona a robong ho
169_0139 ke kgitlehang dibete ke boitshwaronyana
169_0140 metsikapa e mo shapang ho
169_0141 o e so ka ba
169_0142 great rift valley
169_0146 gross domestic product
169_0147 a hauhelwe a fuwemosebetsi o
169_0154 la kgiro haeba o le
169_0155 di lokisitswe ha ho balwa
169_0156 wa ntsholela hanghang o re
169_0157 o totobale e be wa
169_0161 ba silela motoho kalona a
169_0163 le ho otlwa e le
169_0165 ha ho na le dikgaello
169_0166 ke ne ke re ha
169_0167 le ho se di apare
169_0170 clarify date december
169_0175 yeo re ka e fang
169_0177 a dipudulwana a dimenerale ho
169_0178 le boye mokubetso le ha
169_0179 ha e utlwahale ha e
169_0182 ngwanaenwa a nthuta ho fina
169_0183 le dithelevisheneng ho ne ho
169_0188 jorge luis borges
169_0194 ka moahi wa joburg ho
169_0195 a mo phehela motoho wa
169_0196 ho na le mekutu ya
169_0197 ba foromelang ditene nokengya kgopjane
169_0201 dihlahiswa non proliferation status of
169_0202 pheko ke mosotli wa meya
169_0214 be a di hlatswe a
169_0217 tsepamisetsa ho faneng ka ho
169_0218 eo e e sebelletsang le
169_0219 ne ba sa tshabe ho
169_0221 lengau le ne le le
169_0229 ya fokolang ya dulang sebakeng
169_0230 bo ma hareng ba ho
169_0232 le bontshitshweng setshwantshong se ka
169_0234 a be le yunifomo eo
169_0235 ba re ke please call
169_0241 le ausi ha ba a
169_0242 rugby world cup
169_0244 le wa makgowa o itshasa
169_0245 a qotsitsweng a ne a
169_0248 e etsetsang tshehetso e ka
169_0250 se o lokile ba crime
169_0253 a se ke a ikutlwusisa
169_0254 o ne a itulela hahabo
169_0256 ba batsho le ba basweu
169_0257 a koduwa eo e nyarositseng
169_0258 di jehang ba kgonang ho
169_0260 sulafalletswe le ho ja ho
169_0261 mmotsa a re o ne
169_0262 ba se ke ba hema
169_0263 hard disk drive
169_0264 se ke itshwetse mokgubu ka
169_0265 ho ameha ketsahalong ya botshwasi
169_0266 seroki sa morenengha ho etellwa
169_0268 foreign language film
169_0269 polymerase chain reaction
169_0271 phefumoloho ho kgohlola le ho
169_0273 disebediswa le ho fokotsa bofuma
169_0274 sa phetla le ho phetla
169_0277 ho mo lwantsha ha ho
169_0278 ho mofani ke mohato wa
169_0279 sebini se binang se le
169_0280 ya dikgetla ho kutwa ha
169_0282 persal e fumaneha setlankaneng sa
169_0283 le di arv di ka
169_0284 butse mokete ka pina ya
169_0286 ela ho ya tshedisa ba
169_0287 se o le pshasha ho
169_0290 ka motswetseng ho sa hlonngwe
169_0291 ho hira ikopanyeng le moeletsi
169_0293 ne a utswitse diphahlo lebenkeleng
169_0294 oo e ho ba le
169_0297 ka ha o tlwaetse ho
169_0298 ke lesira le le pudutswana
169_0299 ke ipona ke hlalefile ke
169_0300 ke tlala morolo ha e
169_0301 career home run
169_0302 be le tshwano ha ho
169_0303 le phethiso di na le
169_0304 kgafetsa le kgafetsa le diseneke
169_0306 se ke wa ya le
169_0307 ho hiruwa ha ka potefoliong
169_0310 american film producers
169_0312 ba tshedisehe o na le
169_0313 se o le ntata nnyeo
169_0317 se o ngodisitse ha ho
169_0321 ho fepa le ho nwesa
169_0324 o romelang baromuwa sebokeng o
169_0325 e rerilweng ka lekgetlo le
169_0326 tshwanang le mekitlane ya thepa
169_0327 dipuisanong e ne e le
169_0330 ba lefitori ha se bonwe
169_0332 ha re ka ra bo
169_0333 in die land wat die
169_0334 mmamenotwana towe o se ke
169_0336 ho south african revenue service
169_0339 lehlwa ha le qhibidiha dithabeng
169_0340 ne a imakaditse ka ho
169_0341 a mebileng ha di bolawe
169_0343 di a mengwa ho thonya
169_0345 pheo ke ho hlakisa ka
169_0348 diselefounu di ka utsuwa ho
169_0351 dilomo meru e kopaneng diphulana
169_0352 e a ke le duleng
169_0354 ho itshetleheng ho sa hlokeheng
169_0356 re ba hlalefile senase pakwa
169_0357 a borikgwe bo botsho kausu
169_0359 a sebetsa ka boyena ho
169_0364 se jara boikarabello ba sena
169_0366 mo qhoqhang ho intlafatsa ho
169_0367 bo hlollang ha fihlamotsotso wa
169_0369 ka ho toba akhaonteng ya
169_0372 ya be e re elellisitswe
169_0374 ne e se e sa
169_0375 lebile botsitsong le katlehong kgatelopele
169_0384 h tswala tjheleteng ya tsetetsweng
169_0389 san diego chargers
169_0392 re sa natefetswe ho le
169_0393 se a kwenehetse kgarebe ya
169_0401 late bronze age
169_0402 ha di silafatswe ke ditshintshi
169_0405 ya kutlo hcps boenjinere ba
169_0408 prince edward island
169_0409 michigan state university
169_0412 a le khwaereng e ka
169_0413 eo ha e a ka
169_0414 free trade agreement
169_0415 e sa kgahliseng ya dingangisano
169_0417 world trade center
169_0420 phoso e tsamaya le mohatisi
169_0424 persian gulf war
169_0425 ho na le ho kgaokg
169_0426 natural resources include
169_0427 maqephe a fuperweng ke patanta
169_0428 bonahetse tumellanong ya harare eo
169_0429 absa fnb nedbank a beyang
169_0430 fapaneng le ho ya ka
169_0434 a re se a ba
169_0436 skweyiya jj ba dumellaneng le
169_0437 se re sa bue ka
169_0440 kgeswa le ho bitswa mabitsobitso
169_0442 low earth orbit
169_0443 le ho ka sebetseha ha
169_0447 le nna ke le tjena
169_0452 o kgothetse ho na le
169_0456 quantum field theories
169_0459 eo ke ikemiseditseng ho shwa
169_0461 diindasteri demokrasi bokomonisi le bongangele
169_0462 mafosisa o be o tshehetse
169_0463 wa polotiki o na le
169_0465 ho paka ho re se
169_0466 buddhism
169_0468 bitswang long walk to freedom
169_0469 multi purpose community centres ke
169_0470 tshohang e tshwasitswe marabeng a
169_0471 ba itahletse faatshe ba le
169_0472 ho a le b ha
169_0473 eo o sa tshwanelang ho
169_0475 tj hata ya tshe beletso
169_0476 o se a shwele dikweta
169_0480 liberal arts colleges
169_0481 ka ekaba ho se ho
169_0482 shejulu e phatlaladitsweng koranteng ya
169_0483 ha ho sa na le
169_0484 ya sethethefatsi tjhefu ya khemikhale
169_0485 o phuthile le mehaswana ya
169_0487 wa semetletsa wa ho le
169_0490 harvard university alumni
169_0492 ke se ke dikelletse le
169_0494 mola qetellong ya karolo ka
169_0496 le beile pelonghakana a ba
169_0500 ho kenyelletswa le la keresemese
169_0503 president abraham lincoln
169_0508 ho e na le ba
169_0509 le mtshwao a tshupo a
169_0511 eo o e hlokang e
169_0512 mafura peterole e nyoloha ka
169_0514 a tshabehang a lefifi ho
169_0516 e ka letsohong le letshehadi
169_0517 felehetsa ho kgutleha hlakoreng la
169_0518 ba ka hodisang dipoelo ka
169_0520 ha e se e otla
169_0521 cricket world cup
169_0523 bapalami a sa ba fe
169_0524 e re nengneng a eme
169_0525 ba se ke ba nyantsha
169_0526 ba bangata kamoo ho ka
169_0527 ke ke ya leshwa ke
169_0528 ke ke a ba a
169_0529 e lethwethwe o elellwise mokomishenara
169_0530 ha e ne e le
169_0531 le ka madungwadungwana ho ya
169_0532 iswe ho ba baholo le
169_0533 e sa le e qheletswe
169_0534 profeshene e se e kgathile
169_0535 wa mautse ha dubeha ha
169_0536 eo ho buuwang ka yena
169_0539 le maqheku a lenyalong ba
169_0541 re ye re sitele jehova
169_0543 sa ho vouta sedikeng sa
169_0544 tadimile ka leihlola kaine ho
169_0546 na ie seoa se unang
169_0550 be le ho fapoha dipallong
169_0551 ha a na anyalwe a
169_0552 e ke be e rutile
169_0557 bodileng matshwele a sollang a
169_0559 le kutlwisisano dihlotshwaneng ke se
169_0562 council for natural scientific professions
169_0563 dikhampaning dikoporasing le baleming ba
169_0565 le ho seholla mmateboho habohloko
169_0567 ne a se a utlwetse
169_0568 a ka be a sa
169_0572 cite journal title
169_0573 ha eo a se a
169_0574 re re re qhwaolla kobo
169_0575 southern african development
169_0576 ya b le ya c
169_0578 obitjhuari ka ha le ne
169_0580 hatabatsabatho ke ha a le
169_0582 ho tiisetswa e le ya
169_0585 re se mo tlatlapile se
169_0586 ba angwang le ho tshwaetswa
169_0590 ho re ho se be
169_0593 a butswelana ka tholwana le
169_0595 ke batlatlapi ba ikotlang sefuba
169_0600 million years ago
169_0601 ripoto eo e se e
169_0603 wa matona a robong ho
169_0604 le babokelli ba ngodisitsweng ba
169_0605 ke kgitlehang dibete ke boitshwaronyana
169_0606 metsikapa e mo shapang ho
169_0608 great rift valley
169_0610 ho to kafatsa bot lokotsebe
169_0612 gross domestic product
169_0613 a hauhelwe a fuwemosebetsi o
169_0618 personal income tax
169_0620 la kgiro haeba o le
169_0621 di lokisitswe ha ho balwa
169_0624 le melemo e tlisitsweng ke
169_0625 ke ke tsalefuwa gemskemorerowathusoyabongakaoreretswengbasebeletsi ba
169_0626 ke ho se lekalekane ha
169_0628 bakudi ba sa kgathatseng ie
169_0629 le ho otlwa e le
169_0633 le ho se di apare
169_0636 clarify date december
169_0643 a dipudulwana a dimenerale ho
169_0644 le boye mokubetso le ha
169_0645 ha e utlwahale ha e
169_0646 e be e amohelehang e
169_0648 ngwanaenwa a nthuta ho fina
169_0649 le dithelevisheneng ho ne ho
169_0650 se ke ke sa kodumela
169_0651 ho ba mokgwatshebetso o phatlalladitsweng
169_0653 ka ho ba le dikgothaletso
169_0654 jorge luis borges
169_0656 sehollake a motsholele maqa a
169_0657 se a le hkae le
169_0658 ho lebisitseng ho sebedisweng ha
169_0660 ka moahi wa joburg ho
169_0662 ho na le mekutu ya
169_0663 ba foromelang ditene nokengya kgopjane
169_0664 se hlokwang ke baunamolemo le
169_0665 o re ho etsahalang hantlentle
169_0668 pheko ke mosotli wa meya
169_0671 le e batlang e nepahetse
169_0673 ha e le mathe le
169_0675 bokgabo botebo le ho tsepama
169_0677 ke ka mo hlala ke
169_0679 ke ho re a se
169_0681 moshemane a re kapelong le
169_0685 ne ba sa tshabe ho
169_0689 a totobala o ba le
169_0691 wa phetelo o pheta pale
169_0692 phokotso ho fanyehwa le ho
169_0693 ke ke wa keketeha ha
169_0694 kamohelo ya ho thonngwa le
169_0697 petroleum exporting countries
169_0698 le bontshitshweng setshwantshong se ka
169_0699 re a se bonye le
169_0700 a be le yunifomo eo
169_0704 nyamella ha nyenyane mmetsong a
169_0705 mpehile merebele e le ka
169_0706 a ka la ba le
169_0707 le ausi ha ba a
169_0708 rugby world cup
169_0710 le wa makgowa o itshasa
169_0713 nnetee nee yeere ha ke
169_0714 e etsetsang tshehetso e ka
169_0717 me e be lengolong le
169_0718 ne ke sa e hlalohanye
169_0719 a se ke a ikutlwusisa
169_0720 o ne a itulela hahabo
169_0723 a koduwa eo e nyarositseng
169_0724 di jehang ba kgonang ho
169_0725 e ba o se ke
169_0726 sulafalletswe le ho ja ho
169_0727 mmotsa a re o ne
169_0728 ba se ke ba hema
169_0729 hard disk drive
169_0730 se ke itshwetse mokgubu ka
169_0731 ho ameha ketsahalong ya botshwasi
169_0732 seroki sa morenengha ho etellwa
169_0734 foreign language film
169_0735 polymerase chain reaction
169_0736 e ba ruisitse maqheka a
169_0737 phefumoloho ho kgohlola le ho
169_0739 disebediswa le ho fokotsa bofuma
169_0740 sa phetla le ho phetla
169_0743 ho mo lwantsha ha ho
169_0746 ya dikgetla ho kutwa ha
169_0748 persal e fumaneha setlankaneng sa
169_0749 le di arv di ka
169_0750 butse mokete ka pina ya
169_0752 ela ho ya tshedisa ba
169_0753 se o le pshasha ho
169_0757 ho hira ikopanyeng le moeletsi
169_0758 sa tsitsang le ha e
169_0760 oo e ho ba le
169_0762 ho raleng le ho phethiseng
169_0764 ke lesira le le pudutswana
169_0765 ke ipona ke hlalefile ke
169_0767 career home run
169_0770 kgafetsa le kgafetsa le diseneke
169_0772 se ke wa ya le
169_0773 ho hiruwa ha ka potefoliong
169_0775 ka bowena o be o
169_0776 american film producers
169_0780 mokgatlo oo e seng wa
169_0781 le eo e hlonngweng ke
169_0783 se o ngodisitse ha ho
169_0784 ha ramonate o ne a
169_0785 ne ba sa di fumantshwe
169_0786 o se o badile palekgutshwe
169_0790 o romelang baromuwa sebokeng o
169_0791 e rerilweng ka lekgetlo le
169_0792 tshwanang le mekitlane ya thepa
169_0793 dipuisanong e ne e le
169_0796 ba lefitori ha se bonwe
169_0799 in die land wat die
169_0800 mmamenotwana towe o se ke
169_0802 ho south african revenue service
169_0804 ho ba le seabo ha
169_0805 lehlwa ha le qhibidiha dithabeng
169_0806 ne a imakaditse ka ho
169_0807 a mebileng ha di bolawe
169_0809 di a mengwa ho thonya
169_0811 pheo ke ho hlakisa ka
169_0812 ka ho ya ka sekala
169_0813 ya ho tiisetsa ditshaeno le
169_0814 diselefounu di ka utsuwa ho
169_0815 lengolo la semmuso mohlahlobi o
169_0816 eo o e tatetseng e
169_0819 di a bela di a
169_0820 ho itshetleheng ho sa hlokeheng
169_0823 a borikgwe bo botsho kausu
169_0826 motho ofe kapa ofe ya
169_0827 ikgethileng dihlekehleke madiboho marokgo le
169_0829 notable examples include
169_0832 mo qhoqhang ho intlafatsa ho
169_0834 e kenngwang dikotikoting e pakwang
169_0836 ho phatlalla le rephaboliki ya
169_0837 le ho re ho ya
169_0838 ya be e re elellisitswe
169_0839 mareo le mererong ya diprojekte
169_0840 ne e se e sa
169_0841 lebile botsitsong le katlehong kgatelopele
169_0846 o ne a lapile ho
169_0847 ananelwang le ho tlotlwa dibakeng
169_0850 h tswala tjheleteng ya tsetetsweng
169_0853 serobe phiri e se e
169_0855 san diego chargers
169_0857 a sa o tlwaelang ho
169_0858 re sa natefetswe ho le
169_0859 se a kwenehetse kgarebe ya
169_0860 lora a haola meruemetala ya
169_0861 la jse le ho rekisetsa
169_0866 dumelle le be le ele
169_0867 late bronze age
169_0869 dikgohola difefo dipula le marole
169_0871 ya kutlo hcps boenjinere ba
169_0874 prince edward island
169_0875 michigan state university
169_0876 strategic air command
169_0877 o lonngwe ke mokgodutswane ke
169_0878 a le khwaereng e ka
169_0879 eo ha e a ka
169_0880 free trade agreement
169_0883 world trade center
169_0884 ho ya seteisheneng sa sepolesa
169_0885 e mabapi le dikopo e
169_0886 phoso e tsamaya le mohatisi
169_0888 ka bolwetse bo sa foleng
169_0890 tjhehile e ne e le
169_0891 o haellwa ke kutlwi siso
169_0894 o ie ditsietsing o ie
169_0895 ya akademiki ya learnership ka
169_0901 hleneng ke labohlano ho na
169_0903 a jelle kgwebeleng le ho
169_0904 ne ke le sefofu ke
169_0906 se e hlomamisitse di nlb
169_0907 e sebedisitsweng metareng wa dikarata
169_0909 ya bohlwela le bonokwane bo
169_0911 ka mokgowa oo ntlafalo e
169_0914 unesco world heritage
169_0916 utlwe ntlhakemo ya ka tabeng
169_0917 new york jets
169_0919 middle high german
169_0922 ba mo furalletseng ha a
169_0923 ke ho ikwetlisa le ho
169_0924 di a bulelwa le ho
169_0926 o ne a ikgabisa ka
169_0927 o ne a sa kgathalle
169_0929 ha o nthate o mpa
169_0930 ho diphaka ho dihlathe difubeng
169_0934 le baetapele a re qaleng
169_0935 e o lemosa ka ditleleime
169_0936 e ya nahanelwa leanong la
169_0938 nebula award winning
170_0001 states supreme court
170_0002 ee di ne di etsahalla
170_0003 di ka etsuwang di le
170_0004 ha e na thusoho na
170_0005 ya makatsang e le ka
170_0006 ke moikgohomosi ya sa tsotelleng
170_0007 aaraba ee ke ne ke
170_0008 e ke be e e
170_0009 to information act ke ho
170_0010 ke ke be ya phaellwa
170_0016 dihetse tekete he mohaeso o
170_0017 new prime minister
170_0018 mo thetsa ka ho re
170_0020 free trade area
170_0024 popular tourist destination
170_0025 humid subtropical climate
170_0028 native american languages
170_0032 ka re ho ya ka
170_0035 le hlomphehileng mohatsaleqwetha o nyametse
170_0036 e se e itshetjha e
170_0038 wa bohokedi okgonang le o
170_0040 kabong ya ditekanyetso le ditaelong
170_0042 ho lothanwa ba lothuwang ie
170_0044 relatively small number
170_0047 ba seafrika bo hlomptjhwe o
170_0048 a sa ka a robeha
170_0057 ke haho se ho ropoha
170_0058 late middle ages
170_0061 jang setoto ka lere ka
170_0064 ha le re tjhapa le
170_0068 ispia monnafeela a kwetelwe ke
170_0071 be o re tjodietsa ka
170_0073 ho inkela diqeto ha ba
170_0076 josip broz tito
170_0078 wa dithota lerata molodi wa
170_0081 o be mohlodi lengwele le
170_0082 mo jesa ba mo robatsa
170_0083 e hopotseng e sa wele
170_0084 ba ne ba sebaqaleletse ho
170_0085 ka phaphosing ba ne ba
170_0088 papua new guinea
170_0091 dar es salaam
170_0092 e ne e se moitlami
170_0096 ya boitjhoriso e ne e
170_0098 a ka nkuwang e le
170_0099 eo a e jetseng ha
170_0100 be se atametseng ho sa
170_0104 sa re hlahele re bohlale
170_0107 ho sebedisetswa ho lekanyetsa diphetho
170_0110 tjheka moriana thoteng ha a
170_0116 achievement award winners
170_0118 a lefshwa ho ya ka
170_0121 mekgeng e sa sireletsehang ba
170_0123 ka kakaretso le c ho
170_0124 american sign language
170_0128 sa ye ngakeng o e
170_0134 ke ke a angwa ke
170_0140 guano islands act
170_0142 tshwela tb e ipatileng e
170_0143 ya sepikara e ka ba
170_0144 tlung eo le e kopanetsweng
170_0145 ba saps criminal record centre
170_0146 e a ko hlo ntjwetse
170_0147 le mamosa e ne e
170_0149 united states district
170_0152 roman catholic priests
170_0154 dikgoho botsikwane bo ba qete
170_0159 queen elizabeth
170_0160 emelang le ho di fa
170_0162 ya homeland ya qwaqwa le
170_0166 ha a na le kgahleho
170_0169 lekgotla la diphuputso la temo
170_0173 asian nations asean
170_0174 e ka lelefala le ho
170_0176 thwasang se ke ke sa
170_0178 se inong ho bolellana makunutu
170_0179 o se o e lebetse
170_0183 ba itokisetsa ho ya moketeng
170_0184 kodisang o ne a sa
170_0185 le ho bo labalabela botsofadi
170_0187 e kentse leoto ka kgamelong
170_0188 re ho ntatate ba ye
170_0189 e kengwe setempe ke rejistra
170_0190 president richard nixon
170_0193 ke ya banhlankana le methepa
170_0197 ne a tshohilehaholo a sa
170_0200 o itshole ho se ho
170_0201 tadi o tsejwa ka mereto
170_0202 american revolutionary war
170_0203 sa mahwelereng se ahilweng katoropong
170_0204 ne a sa utlwisise a
170_0206 ya sejwalejwale e nkehang ha
170_0207 ke re ke a bua
170_0210 ha a ka a fetohela
170_0211 ya diindaseteri e beheletse ka
170_0213 king philip
170_0215 itshepile noha ha e ntshwe
170_0218 ho tsetelwa moruong le dikarolwaneng
170_0221 phahamisa ditokelo ho kenyeletswa tshebdiso
170_0222 eo a nnileng a e
170_0233 le ho phehisana le mafatshe
170_0234 nkong ke molebedi eo ho
170_0240 wa monnamoholo o shapuwe ho
170_0243 ka pakana ya sakarete le
170_0244 academy award nominations
170_0245 day saint movement
170_0246 a tsielehile e le ka
170_0248 tlaleho ho ama le ho
170_0251 professional sports teams
170_0252 ba ke ke ba ba
170_0253 mekgatlo eo eseng ya mmuso
170_0254 ho se tsotellwe ho se
170_0255 podumo ya moemanotshi ya ba
170_0256 so fele tlhophollo ya ho
170_0263 okosejene o ke ke wa
170_0264 ho kenyeleditse le tekanyetso e
170_0266 di se o tshwenye o
170_0270 los angeles area
170_0271 se lebelletsweng k h r
170_0275 ka ho tsuba boikwetliso le
170_0277 ho ba le phihlelo ya
170_0280 ba ne na ye ba
170_0281 oo mohlolo o ke ke
170_0282 matleng le mananeong a matlafatso
170_0283 e be di na le
170_0286 ka ho sisinyeha ho hosesane
170_0287 le be le ditsebo le
170_0294 ke advocate le ha ho
170_0303 chicago white sox
170_0309 le ho mo qhobella majwe
170_0311 di na le ditsebo le
170_0316 le dintwa vmme e ne
170_0319 o tswile kotsi e mpe
170_0321 largest ethnic group
170_0323 roud ya wto re kgodisehile
170_0324 motjekong bashemane re ne re
170_0327 di anti retroviral le ya
170_0328 kgutle a tulatula moriana oo
170_0329 re e hlaolele re sietswe
170_0330 efatshe wa rakebi selemong se
170_0331 ha se a ralwa ka
170_0333 ha ho na ho ba
170_0335 se ne se hlabehile habohloko
170_0336 e ne e le nonyana
170_0339 lelapeng ho ka ba le
170_0342 oo ho ne ho le
170_0343 badan pusat statistik
170_0345 di sa fohlwa o a
170_0346 ho ya mo nkisa mokotla
170_0348 re phahamisitswe ke ho kgwathwa
170_0350 o itshebeletsa ho ya ka
170_0354 kgothaletso ya boikgwantlello le ho
170_0355 ke ba arolelanametsi a yonale
170_0358 ho ya ka mosebettsi wa
170_0360 di le matlapa di thella
170_0361 screen actors guild
170_0362 ho ka iteanngwa le ba
170_0363 bo bo lelele le bo
170_0364 ke ngongorehe ka ha ke
170_0365 ludwig von mises
170_0366 ho ja papa ya lephotho
170_0369 a le tipatipa ho ya
170_0371 european union le ahile diphaposi
170_0372 wa ho lahlwa ha dikgwerekgwere
170_0373 supreme court ruled
170_0375 tsabona metseditoropong ho na le
170_0376 mo hlahetseng mo romelle karete
170_0377 khomishene e ikemetseng ya dikgetho
170_0379 samina o imme ya nyarosa
170_0380 boikutlo ba ho tshepana pakeng
170_0386 ya projekte le kananelong e
170_0391 science fiction convention
170_0392 se tshwasang dihlapi ke sekepe
170_0393 be ba se ba ho
170_0394 d e le f ba
170_0395 american football conference
170_0396 ba le pin ya ho
170_0399 burundi comoros sudan haolo ho
170_0402 gibbs free energy
170_0407 ba itokisa ba hlomela ba
170_0411 late eighteenth century
170_0414 ba ya phasaphasa e tjhaile
170_0416 madison square garden
170_0417 ho fopha ho sututsa ho
170_0418 ke kalafo e sa fellang
170_0422 e yeng e be ya
170_0424 a qela holeoto o ne
170_0425 na le tokelo ya ho
170_0426 basebetsimmohomemorantamo ka tlhokomediso ya ho
170_0428 ka ke ne ke le
170_0436 ha o na thaere eo
170_0439 e lwanela ho ya ho
170_0441 english civil war
170_0443 a ne a sa fihlelwe
170_0444 e le o unneng ka
170_0446 sedulwamatswapong ha ho le hobe
170_0447 civil class
170_0451 ke basebeletsi matloleng a dibenefiti
170_0452 leru le lefubedu t w
170_0453 chief executive officer
170_0455 a bo hlothile e ya
170_0456 wa kabo ya mangolo nqf
170_0458 e mehlano ya dilotho ho
170_0459 seturupu se se kgubedu botlolwana
170_0462 se mo ise yunivesithing o
170_0464 australian air force
170_0465 western roman empire
170_0467 phatladitse masedinyaneng dithelevishineng le dibukaneng
170_0469 thupa e kojwa e sa
170_0473 a letsebe le sa le
170_0478 ho ya ka kutlwisiso ya
170_0487 re qhau a mo sudubanyafatshe
170_0488 unrestricted submarine warfare
170_0495 mmampontsheng ha o lelemenemene le
170_0496 oo le ha a ne
170_0497 pope pius
170_0502 ya remittance advice ya nothisi
170_0503 american football league
170_0504 o ka ba wa ya
170_0506 wolf whistled le ho betwa
170_0509 hose phahle makunutu abonaj k
170_0510 le sa tlohe phofung ya
170_0512 inspector of mines ciom ya
170_0513 khompuyuteng a ke ke a
170_0514 kutu ya sefate e le
170_0518 enngwe a le akgele ka
170_0519 na ba e rutilwe ke
170_0520 le ho ya kamolao wa
170_0521 o ne a thabiswa ke
170_0522 hiruwa ha ka potefoliong ya
170_0524 o se tlodise ho ja
170_0525 le ho tlanya typing o
170_0526 tsejwalo a ba a re
170_0527 tiehiso ya ho phethela dikarolo
170_0528 ke tshabo tshabo ya ditlamorao
170_0529 ya mmofu e kgonya mokgwabong
170_0531 mixed martial arts
170_0534 camp david accords
170_0538 sepheyo ke ho nyalanya boitsebelo
170_0539 e ya hatiswa e saenwe
170_0540 ba qelelwa dinthong ha ba
170_0541 union member economies
170_0542 ya a a nkellang hloohong
170_0544 di so ka di rekiswa
170_0549 o ne o le lelele
170_0551 ne bo hlomola ho le
170_0553 a sa kgarumemmakarabelo motsotsong oo
170_0556 ka ho ya moketjaneng ono
170_0557 le ha ho qaqisitswe ka
170_0559 ya tsitsinngwa ke diheshana bomafisa
170_0561 na le boipelaetso bo isteng
170_0562 d ho hokahanya le ho
170_0565 ho bahlokomedi le pontshahatso ya
170_0566 di ka qhalakanngwa le di
170_0571 kgele a tsoha a tlola
170_0576 le ho re kumela ka
170_0577 sa le ka madungwadungwa ke
170_0581 le ho phuthollwa ka bo
170_0587 public international law
170_0588 international criminal court
170_0593 popular tourist destination
170_0594 humid subtropical climate
170_0595 le vitamini e ka ho
170_0597 eo ka ho kgena o
170_0599 ne e le tjaka hara
170_0600 ho tsebisa gems mabapi le
170_0602 native american languages
170_0605 ho ne ho tsongwa ho
170_0607 ka re ho ya ka
170_0608 ditlhabela ha o mpona ke
170_0609 le sa utlwahaleng a sa
170_0610 le hlomphehileng mohatsaleqwetha o nyametse
170_0611 e se e itshetjha e
170_0612 sa se medisa wa se
170_0613 wa bohokedi okgonang le o
170_0614 e le bohlokoha e le
170_0615 kabong ya ditekanyetso le ditaelong
170_0616 mr t a ba a
170_0617 ho lothanwa ba lothuwang ie
170_0618 ha e le ho totoba
170_0619 relatively small number
170_0620 le mepeletotshwano mahlalosonngwe malatodi le
170_0621 ho be le ho se
170_0622 ba seafrika bo hlomptjhwe o
170_0623 a sa ka a robeha
170_0624 boitsebiso ho thibela pepeso e
170_0626 ha e bonahale ntlafalong ya
170_0627 wa bodulasetulo ba sadc ho
170_0628 united states presidential
170_0629 kgwebo e ka thoko ho
170_0630 le se ke la fokodisa
170_0631 ya boipiletso ba ka hare
170_0632 ke haho se ho ropoha
170_0633 late middle ages
170_0634 diphoso le ho e ntlafatsa
170_0636 jang setoto ka lere ka
170_0637 le molaodikakaretso wa ka ho
170_0639 ha le re tjhapa le
170_0641 sefate a mo atamela ba
170_0642 a hwehla ka letsoho ho
170_0643 ispia monnafeela a kwetelwe ke
170_0644 matsholo a ikgethang a temoso
170_0645 le diambulense e ne e
170_0646 be o re tjodietsa ka
170_0648 ho inkela diqeto ha ba
170_0649 ekasitana le marangrang a dikgokahano
170_0650 ba na le shere e
170_0651 josip broz tito
170_0652 a nkehile mathakeng ao ke
170_0654 ha ho na le menyenyetsi
170_0655 ho mokomishenare wa ditlhapiso p
170_0656 o be mohlodi lengwele le
171_0001 le sa le letjha ho
171_0002 ne a futsitse lebitsola haehobanee
171_0003 ke eo o kwenehetswe ke
171_0004 ka ha ho bontshitswe tekodisiksong
171_0006 greenhouse gas emissions
171_0007 yom kippur war
171_0008 ne o kopile koranta ho
171_0009 states coast guard
171_0010 polakwang dihekeng le mamating a
171_0011 clarify date january
171_0012 ho thweng ke hotsitsi eo
171_0013 ke ikutlwa ke imolohile moyeng
171_0014 kgotsa mmamoleko ha se dingwetsi
171_0015 a feheletsana ba a ithoka
171_0016 di hlwekile di sa tshwehle
171_0019 ie seoa se unang ho
171_0020 ne ho e na le
171_0022 dihlekehleke madiboho marokgo le metjhophoro
171_0023 o sebedisitse melao e hlokehang
171_0024 ne a bolelle mmae ka
171_0025 letlaila le ho tlaila moreneng
171_0026 marapo ka ho ya ka
171_0027 le se ke la bolellwa
171_0028 a ne a hanela monyaduwa
171_0029 ya boingodiso e ipitsang ka
171_0030 ho tshwana e re nke
171_0031 maiteko a ntjhafaditsweng a dinaha
171_0032 ke ne ke safufulelwa ho
171_0033 mabothobotho a bonojana bo tsotwang
171_0035 ekasita le ho nyediswa ke
171_0036 billion years ago
171_0037 o ne a tswallwang le
171_0038 ya ka ka kglofalo e
171_0039 se kgabole ha a boya
171_0040 ha a ke ke a
171_0041 sa ho ntshetsapele ikonomi e
171_0042 ho na le lera la
171_0043 o amohetsweng ka ho qoholleha
171_0044 adelaide tambo o ne a
171_0045 eo re mo tswetseng o
171_0046 se e le wa semanyamanyane
171_0047 supa ku tlwisiso e kgabane
171_0048 ha e le mona o
171_0049 ho ba le masimo ao
171_0050 na le tumelo e feletseng
171_0051 thusong e arabelang le e
171_0052 o ne a pudukane ho
171_0053 o ne a le bohareng
171_0054 air traffic control
171_0055 ho hlahlobisa le ho ntjhafatsa
171_0056 apesa ho kupetswe bofeela ba
171_0057 npo le ha ho le
171_0058 lokodisitsweng ke mofuputsi ho kenyeleditswe
171_0059 ke sehwai sehwai se kgothetsa
171_0060 lebelletswe ho rerisana le ditsebi
171_0061 ya ho potlakisa kgokahanyo ya
171_0062 ha o se o lemasapo
171_0064 ba ruisitse maqheka a bohlalefi
171_0065 ho netefatsa ntlafatso e lekaneng
171_0066 a thusana ha le le
171_0067 ne bangongoreha meyeng ha ba
171_0069 ho na le phokotseho e
171_0070 ba re lesokwana la ya
171_0071 oo o be o mo
171_0072 o ikenya tshotso dinaleng o
171_0073 a seterateng a ne a
171_0074 momahanyo le ho boikamahanyo ba
171_0075 e a nenwa naheng ya
171_0076 e ne e le la
171_0077 ha ke re o utlwile
171_0078 hlokahalang le matsapa a ho
171_0079 e le o kolotang ka
171_0080 ka motjhanae ontse a hotse
171_0081 ya penshene le ya ho
171_0082 lefshwang ka tlaase le baithaopi
171_0083 football clubs established
171_0085 natural gas reserves
171_0086 c ho ngangisana le ho
171_0087 o ka wa e noha
171_0088 appointed prime minister
171_0089 sehlahla mafenetha o ne a
171_0090 ka ho ngolla moromowa ho
171_0091 a itlhompholle ka ho phetela
171_0093 o na le kgohedi e
171_0094 le moputswa pududu a sa
171_0095 o ne o ka ba
171_0096 di sa re hlahele re
171_0098 mo kwalamolomo ka seatla sa
171_0099 bo ne bo hwebisana le
171_0100 o mphara ka melato eo
171_0101 e hokahaneng tlwaelo ya ho
171_0102 theilweng ka ho ya ka
171_0103 melaetsa ya ditshoso ya ditshokelo
171_0104 na ho sehwajwang ho rokwa
171_0105 a ikitlaheditse ha e le
171_0106 re ka e fihlelang ke
171_0107 thothokiso le ya sengolwa sa
171_0108 ho tsamaisana ka ho lekanale
171_0109 ya ho fa bangga ba
171_0110 e le ha ho jewa
171_0111 sports clubs established
171_0112 lokiswa ha masalla a setopo
171_0113 ho be le phumantsho e
171_0115 ba mashaba ba ne ba
171_0116 ya ho ba mahlabeng ha
171_0117 se ba kopanyang ba kopangwa
171_0119 a akgeha ha a le
171_0120 ke kene morerong oo wa
171_0121 letlole la ho ya pensheneng
171_0122 world heritage site
171_0123 kgothaletswe ho iqalla le ho
171_0124 rarahane e na le ditumelo
171_0125 e moholwanyane ha a kopuwa
171_0126 be ho petsohe le mafika
171_0127 ka tshoha ke se ke
171_0128 ya bosebolelo ya ho qhelela
171_0129 o ba siya ba le
171_0130 ka phaposing ya ho phomola
171_0131 citation needed april
171_0132 thobalane ba ne ba sa
171_0133 tafoleng eo ho tsebiswang ho
171_0134 ka maleng komishenara o ne
171_0135 le se le mo rutile
171_0137 human rights violations
171_0138 ho re ha e a
171_0139 e le mojalefa ya ngodisitsweng
171_0140 ho na le kgathatseho ka
171_0142 fuwang mosebedisi ho kgema le
171_0143 makubetse e ne e le
171_0144 american league championship
171_0146 a itshehela a ba a
171_0147 mookgo o ne a iballa
171_0148 containing video clips
171_0149 a post graduate di institjhusheneng
171_0150 methodist episcopal church
171_0151 re se re kgenne e
171_0153 wa ba wa leka wa
171_0154 manufacturer for agoa particulars di
171_0155 ne o le bolepolepo o
171_0156 institushene e tshepuweng ka ho
171_0157 ke ke ha eba bonolo
171_0158 tu ha ho sa na
171_0159 ha o re o a
171_0160 a o fetohela oiphumane o
171_0161 a rarahana di a lohellana
171_0162 kuruetswa ke ho re a
171_0163 ba hlwauweng ka ho ya
171_0164 eyes wide shut
171_0165 high seas fleet
171_0166 le bitleng la mmaletrato le
171_0167 kekgalefo ya re ha mmatshokolo
171_0168 bontshe tosa le madinyane a
171_0169 ha katiba e le e
171_0170 ke utlwile bothabiso ba re
171_0171 homo phopholetsaka ka mokgwanyana o
171_0173 ho phethela boikwetliso ba thapameng
171_0175 re majalefa a sekema se
171_0176 la ho se utlwane ka
171_0178 ba se lemohe boteng ba
171_0180 round table le rotary le
171_0182 ba bolotsana ke re ha
171_0183 ka ho qolleha ba kopanye
171_0184 ho ba ramotse tikolohong ya
171_0185 tefo ditshehetso le menyetla e
171_0187 oo ho ona mongodi a
171_0188 na o tiisitse ha o
171_0190 se tsotellang le se tsepamisitseng
171_0191 wa mooki tliliniking e ka
171_0193 o be o mo lakaletse
171_0196 ke o tlele ka bohlanya
171_0197 bafubedi ba re tlere ke
171_0201 e se e le motsheare
171_0202 etlare ha ke tea kalala
171_0203 ya mo fenetha ha ba
171_0204 mekga e thusang ka ditjhelete
171_0207 sa qoso le bohanyetsi mahla
171_0208 e kgotjwa e le maoto
171_0209 ho ja ha o na
171_0211 tshware babelaelwa e be ba
171_0212 ha letsohole fepela mmetso morenao
171_0213 tshenyeho ya mesifa mascular dystrophy
171_0214 kgelohang tokelong ya bohato bofe
171_0216 ho yahae e ke ye
171_0217 summer olympic games
171_0218 sa sebetseng mmba be ba
171_0219 ho ile ha ba le
171_0220 ka makgetlo a tsheletseng ka
171_0221 ya makwalata e ka fodiswa
171_0223 african development bank
171_0224 official diplomatic relations
171_0226 hugo award winning
171_0227 ema wa opa diatla ha
171_0228 ho dumedisa mmamoruti ha a
171_0229 e be ke mokgethi wotong
171_0230 boqhetseke le ka bohlwahlwa ha
171_0232 a ikemisetse ho reupella le
171_0233 wa matsibolo a se a
171_0235 otshwanetse o hlahelle kgotla ka
171_0236 pitsa e phehang gauta ka
171_0237 ka ha ke ne ke
171_0238 lebisitse hokae ha o ipoledisa
171_0239 ba intshang sehlabelo ka ho
171_0240 barutwana le matitjhere ba be
171_0242 la dikgokahano ba in communications
171_0243 ditshila ya ho bapala ka
171_0244 following demographic statistics
171_0246 johann sebastian bach
171_0247 se nw e seno se
171_0248 amateur radio operators
171_0249 e kgwaetse ka lehafing a
171_0250 eo ba mo feheletsang ka
171_0251 sa mo re shwato nkong
171_0252 human rights abuses
171_0253 nafvsa e na le phaposi
171_0254 ba pitikisana ba ba ba
171_0255 ya polokelo le ka kenngwang
171_0257 sa qeaqee le ho qeaqea
171_0258 international auxiliary language
171_0259 ba ba le kgaoho ya
171_0261 congressional gold medal
171_0262 atomic energy commission
171_0263 se batlwang ke takadimane ba
171_0264 ha o seilwe ke ba
171_0266 ne ba ye ba re
171_0267 ba pokeletso ya basebedisi ba
171_0268 aung san suu
171_0269 wat sal my nou te
171_0270 ke ke ya ba ka
171_0271 buisanang le ho ngangisana ka
171_0272 disebo o ipolaile a ba
171_0273 ka re makau ke sebapadi
171_0275 irish republican army
171_0278 le le ka sekotlong sa
171_0279 re e ka mo loma
171_0280 mohlomi o ne a etelwe
171_0283 e nngweba ne ba bonesaka
171_0284 se a kgahlilwe ke ka
171_0286 le ha a ne a
171_0289 ntlheng le ha e le
171_0290 roman catholic bishops
171_0291 ka sekotlolo a sa sebetse
171_0293 e lelefalang le ho kgutsufala
171_0294 na le seroto se sa
171_0295 international maritime organization
171_0296 tebetebeng eo o nkentseng ho
171_0298 moporesidenteha ho na motshwaruwa ya
171_0300 di sa le setlwaeding yaletsetsa
171_0305 ha re lekola dikopo le
171_0306 ho re ho se ho
171_0307 e re pududu a sa
171_0308 a sa ka a kgaola
171_0314 tsamaiso ya sekema le ditlhophiso
171_0315 tjhotjholosa ba ne ba le
171_0316 e se e ie dibeke
171_0318 o ne o e so
171_0319 samuel taylor coleridge
171_0327 a ka ngodiswa e le
171_0328 le ha e se a
171_0329 sa thomelo le thomello ya
171_0330 le ho hlahisa dipalopalo dikhopi
171_0331 e ka ba le makukuno
171_0332 e raduweng e se e
171_0333 mo tshabang ho nkgisetsana mahafi
171_0334 o ka tlasenyana koporo ho
171_0335 maru a matsho a fifetseng
171_0340 ho bolokwa le ho hlokomelwa
171_0343 ya mo hatelletseng e ba
171_0344 sa dikulo difensetereng le monyako
171_0345 o re qobella ho hasanya
171_0349 a tsamaya o ne a
171_0350 dikgwerekgwere le monyediso ya mantle
171_0351 o ne a hlabile dioka
171_0352 boikopelo re se re sa
171_0355 o sa le motswetse e
171_0356 re be ngatanngwe ke pheto
171_0360 o sa dumellwang wa ho
171_0361 ho ya ka bafuputsi ba
171_0362 ka ba o re o
171_0364 dikgomo le manamane ha bashanyana
171_0369 o se ke wa kenya
171_0370 se ke wakgahlwa ke lefiso
171_0374 e na le boikarabelo ba
171_0375 ho ya ka dikereiti mephatong
171_0376 se phethahetseng setjhabeng le dibakeng
171_0377 developments pty limited le khayalethu
171_0378 ba ne ba le thekong
171_0380 setsi le ho ba le
171_0381 o se kgitla le ho
171_0382 e ne e le ka
171_0384 mo hatelletseng e ba mohlodi
171_0385 ho se o lefise ditefiso
171_0386 sa cricket ka ho ba
171_0390 le ho ba tsietseng ya
171_0391 bo ke ke ba fetolwa
171_0392 e kgothaletswang ya llifi ya
171_0393 o ne a sa a
171_0395 e lwanelang ditsela ha e
171_0396 kgomathisetse tshaeno le ho hatisa
171_0398 a ke ke a fetolwa
171_0399 manane le dinehelano le ho
171_0400 le a phunngwamme moloio a
171_0401 le nehelano e nang le
171_0402 thenthetswa le a nyonya le
171_0405 la phapang eo e a
171_0406 o lo nkopela tafo ke
171_0407 eo e ke ke ya
171_0408 di be di mela manaka
171_0409 neho sa kahaeba le lerataka
171_0410 le kelohloko e hlokolosi ya
171_0411 baena le dikgaitsedi ke thatano
171_0412 ba hema e re ha
171_0413 e ka nna ya se
171_0415 ho ne ho phethesela ke
171_0416 ke ke ba ba le
171_0417 malomao ya o hodisitseng ho
171_0418 ho ikakgela kasetotswana ho kenyeng
171_0419 ho na le dingongoreho ka
171_0421 na ha o ka kgethelwa
171_0423 santaco re ke ke ra
171_0424 ho letsa diletswa ka ho
171_0425 e sa hlokomelweng ka ho
171_0426 e maikemisetsong a ho ka
171_0427 ne e le makejakejane a
171_0429 ka botjhabela ho ho ne
171_0430 se thibelang mafafatsane a ko
171_0432 dube thankga a be a
171_0433 o a qeaqea ha a
171_0437 o re tlotlolotse re ne
171_0438 dikgomo ha di na motlohapele
171_0440 semoya a tsamaisanang le tlhwekiso
171_0441 le lesisithehonyana ho ka phunya
171_0443 le ha hothwe ke lenqosa
171_0445 e ne e le sehwabana
171_0446 ho ipapisitswe le melawana ya
171_0449 ho se hlomphehe ha ho
171_0450 united nations peacekeeping
171_0451 tsena e ne e le
171_0452 ho sa ohlweng le ho
171_0454 ditjhate diphousetara dinepe ditshwantsho diselaete
171_0455 steyn delport a fa mmueli
171_0456 le ho senolwa ha sephiri
171_0458 ha ba hlajiwe ke dihloong
171_0459 ha a ne a se
171_0460 wa nomora ditlhokomediso le ditemoso
171_0461 ha ke ne ke le
171_0462 ha a ka kgaotsa ho
171_0463 ka e se e le
171_0465 ka ha ba ne ba
171_0468 a lehodimo a matle ke
171_0472 melongwana e tshasitsweng kaletshwana le
171_0474 ho na le mekgwatsamaiso e
171_0476 o bohlile ka letheka maru
171_0477 wa ka eo ke mo
171_0478 nka ka re ke a
171_0479 ha re a phahame a
171_0482 o be o sisinye ditlhahiso
171_0483 ya a le e le
171_0484 ha mokomeshenara wa dikano a
171_0485 great leap forward
171_0486 e re ha a se
171_0488 baholwanyane ba bananyana e ne
171_0492 ke na le mathatanyana a
171_0493 hothwe ke lenqosa le o
171_0494 ya o rekisetsang pholisi pholisi
171_0495 se a sa ba tshepe
171_0497 e ne e le le
171_0498 e ya e honyela o
171_0499 se ho phahlwa ho phothasela
171_0501 modulasetulo le motlatsi wa modulasetulo
171_0502 e ne e le ntsho
171_0504 magauta e se e le
171_0505 ka kaho ya institjhushene le
171_0506 ba hlahlobilweng e le ba
171_0507 ba ba fetole makgoba ha
171_0508 mabitso a dibaka la afrika
171_0509 le seroto se sa ribollweng
171_0510 ke re ke moihlwe ho
171_0511 best supporting actress
171_0512 wa tlhware ha di lome
171_0513 se le hopotse ho ya
171_0514 id le ya tshupiso ya
171_0515 karolwana e ntshitsweng koranteng jj
171_0516 a ke ke a hlola
171_0517 o se o ntlela ka
171_0518 african union member
171_0520 e be e se e
171_0521 ho be le lehokela le
171_0523 ho teba le ho tsepama
171_0524 ho le mahleke ka hohlehohle
171_0525 phemiti ya ho romela hlapi
171_0526 ke ke a kgona ho
171_0527 joyene e fedileng ha a
171_0528 kaha ho kgaoha ha botho
171_0529 ne e le bitleng la
171_0530 dutch east india
171_0531 isitsweng ho bafetoledi ba poraefete
171_0533 ho le leratanyana le thibang
171_0534 waseithati ya tshepileng ho itshwarela
171_0535 o nwele mahe ha a
171_0536 a tiisa ke a hlapanya
171_0537 lomahantse meno ha ke re
171_0538 holofetseng ba siuwa ba le
171_0539 pokello ya mantle e ka
171_0540 ruburiki eo o e fuweng
171_0541 moputswa sa masumu wa dithako
171_0542 ha ho ya emellwang ka
171_0544 ho saena maqephe ohle a
171_0546 pope gregory
171_0547 ne ba tlasala ba hlokomelwa
171_0549 ho ba le kemedi e
171_0551 united nations security
171_0556 ke sentebaleng ha a ne
171_0558 e ne e le moqebelo
171_0559 random variable
171_0560 a mesebetsi e ngolwang potefoliyo
171_0561 e utlwahale ha e bope
171_0562 na le tjheseho ya ho
171_0564 e be e o jesetse
171_0565 ha a ananelwe e le
171_0567 ha e se a bontshitsweng
171_0568 a ya lengotswaneng lehaufi a
171_0569 ba buisane le ba ha
171_0570 le dipotongwane ho re tshiu
171_0571 diselefounu di nolofaletsa ba di
171_0573 barekisi ba dikoranta ke ha
171_0574 religious organizations established
171_0575 se e le yabeng ba
171_0576 video game console
171_0578 ba banyenyane a re psa
171_0582 di loketse bomang ba dilemo
171_0583 mo fa matl a fe
171_0584 mooki tliliniking e ka marantha
171_0586 na le leqai le ka
171_0587 e o phehise hlama ka
171_0588 academy award nomination
171_0589 e methwang ka dimetara e
171_0590 soma leho nyefola se sa
171_0592 di poma diterata ka dipeta
171_0593 junior high school
171_0594 ya hlokangmasapo ke ne ke
171_0596 ya ho robalana le ba
171_0598 thajana ya mapungubwe kamorao ho
171_0601 le a ka la ba
171_0602 ka ho founa di ka
171_0603 le se le hopotse ho
171_0604 a mang le a mang
171_0605 sa ho kopanela tekenoloji phetisetso
171_0606 kereiting ho ya ho e
171_0607 a mofilwe ke ngwananyana ya
171_0608 le finnweng lefito o madimabe
171_0610 komiti ya tekolo ya tekano
171_0611 mamelletsemonate wa borosolo ha bo
171_0612 ya d e f le
171_0613 ya ho ruta le ho
171_0614 e late latailana e ne
171_0616 ne di sa mo natefele
171_0617 ditereke ho thakgolwa ha foramo
171_0618 a kgopisehile o ne a
171_0619 ba sa tshepahaleng ke tshokelo
171_0620 ho phethesela hakana tjhe ka
171_0621 red blood cells
171_0623 ne a na le kgahla
171_0624 ho na le ba binang
171_0626 john von neumann
171_0627 ke ho re ho se
171_0629 a e ka ballwang ho
171_0630 o kgabisa kamalente a mafubedu
171_0631 a ne a bonesitse a
171_0632 ho ka tshohlwa le ba
171_0633 ho ikana a se ke
171_0634 calcium le phosphorus e ka
171_0635 tieho ho ya ka balanse
171_0637 ya ho ingodisetsa ho vouta
171_0638 ho ruta le ho ithuta
171_0639 lefellwang ho the director general
171_0641 ha ho na le e
171_0642 e ne e le morearea
171_0645 eo o e kgethileng o
171_0646 le ho ntshetsapele le ho
171_0647 o rerileho mo hlasela a
171_0648 o lekanyetswang o hlaloswa ka
171_0649 o mo tshwantshisa le taemane
171_0650 kennedy space center
171_0652 o le kgethong ya sapphire
171_0653 o beilweng ho fa dipehelo
171_0654 ba ka utswa phahlo ya
171_0655 o ne a nyetse sethepu
171_0656 pampitshana eo e be se
171_0657 meaho meaho ya sehopotso le
171_0658 setefikeiti sa ho hlakolwa boingodisong
171_0659 rational choice theory
171_0660 a o shobile a o
171_0661 le mafumahadi le mmini o
171_0662 a behwe ha a behwe
171_0663 ya ka e ne e
171_0664 eo makgulo a hlasetsweng ke
171_0665 qetella o se o kopanetse
171_0666 hloboha ho mo hloboha ka
171_0667 le ha ho se na
171_0668 monamodi a ne a ka
171_0670 boikgohomoso le ditlontlollo re ka
171_0671 ho ya tiisetsa le ho
171_0676 adriaan van wyk le mof
171_0678 ditumelo borui tshebedisano le diqhwebeshano
171_0680 le ke le mo nehe
171_0682 ka ho qoholleha kahong ya
171_0683 dikgoto disenyi ho ata ka
171_0684 e re ke mo letele
171_0685 western classical music
171_0686 amohelwang ho ba eo ho
171_0687 ha ke a tlela ho
171_0688 e se e le dikgutsana
171_0689 ya databeise e ka sebediswa
171_0690 o tlabikelwa ke tshotleho o
171_0691 e ka nnang ya unwa
171_0692 di etetseng ha le ne
171_0693 osama bin laden
171_0694 african development community
171_0695 hodimohadi ba boprofeshenale nonoso ya
171_0698 natural law party
171_0699 na le neo ya ho
171_0700 chinese civil war
171_0702 kgutlele ho sera sa ka
171_0704 makala a makgotla a dinyewe
171_0705 ho ntahla ke le mokana
171_0709 ho ahlola ka ho hirwa
171_0710 e ne e mo fa
171_0711 ka sejatlhapi ba re ke
171_0712 ntlhola ha o se o
171_0713 martin luther king
171_0715 e susumeditswe ke ho se
171_0719 ho iphedisa ka ha ba
171_0721 ho ke ke ha qojwa
171_0724 royal air force
171_0727 motla o tutswe wa jeremane
171_0728 o be o sehelle mahlalosi
171_0729 accident statistical system samrass o
171_0730 e qethohile edumella matswejana ho
171_0731 o se a le ho
171_0735 le tshwerweng ha e le
171_0737 o mobe o tletseng lehloyo
171_0740 be o mo lakaletse mahlohonolo
171_0742 professional baseball teams
171_0743 fact date june
171_0744 bokantle ba makasine o arabe
171_0745 motlanyatsi ya ka sehlohong wa
171_0746 ho tuba ha eo a
171_0747 e hlotsa e mo tseiditse
171_0748 ha ho se ho kgethuwe
171_0751 bo fihlellwang habobebe ka ho
171_0755 o ne a sa itlwe
171_0756 ba sehopotso pelong ya ka
171_0757 e qadile ho o tshwenya
171_0761 holy roman emperors
171_0763 ha ho le hobe o
171_0764 a e siileng ha a
171_0766 le phonyohile ka soba la
171_0767 ya diphetolelo le tlhaolo ya
171_0769 states environmental protection
171_0770 cold war era
171_0771 ke ne ke sa maketse
171_0772 los angeles county
171_0773 ne a ye a kgonye
171_0774 ba se ikutlwe ba phahametse
171_0778 ka ho phahamela ho hlwibila
171_0779 a se a sa ye
171_0780 ne a rwetse masale a
172_0003 states air force
172_0004 ho se ho fanwe ka
172_0006 late bronze age
172_0007 ha di silafatswe ke ditshintshi
172_0008 dikgohola difefo dipula le marole
172_0010 ya kutlo hcps boenjinere ba
172_0012 ho felehetswa ke memorandamo le
172_0013 prince edward island
172_0014 michigan state university
172_0015 strategic air command
172_0017 a le khwaereng e ka
172_0019 free trade agreement
172_0020 e sa kgahliseng ya dingangisano
172_0021 kgoka hano ya dikahare le
172_0022 world trade center
172_0023 ho ya seteisheneng sa sepolesa
172_0025 phoso e tsamaya le mohatisi
172_0026 di ne di ponngwe ka
172_0028 ho mo fa matl a
172_0029 persian gulf war
172_0030 ho na le ho kgaokg
172_0031 natural resources include
172_0033 bonahetse tumellanong ya harare eo
172_0034 absa fnb nedbank a beyang
172_0035 fapaneng le ho ya ka
172_0036 a le boyeneng a hlaheletse
172_0037 ke ho mathakaka majwaleng o
172_0038 ho ya ka diphapang na
172_0040 le ho re o bope
172_0041 skweyiya jj ba dumellaneng le
172_0043 e ne e le disontaha
172_0045 kgeswa le ho bitswa mabitsobitso
172_0047 low earth orbit
172_0049 na re ne re itshwenyetsang
172_0050 ke ba ba le kgaoho
172_0051 phethiso di na le nyehelo
172_0055 o se ke wa ikgatella
172_0058 o re re qhelele moketjana
172_0061 quantum field theories
172_0062 re itlamme ka boithaopi ho
172_0064 eo ke ikemiseditseng ho shwa
172_0066 diindasteri demokrasi bokomonisi le bongangele
172_0068 wa polotiki o na le
172_0069 ka ba ke re o
172_0071 buddhism
172_0073 bitswang long walk to freedom
172_0074 multi purpose community centres ke
172_0075 tshohang e tshwasitswe marabeng a
172_0077 ho a le b ha
172_0079 ba entse sakanalankope ba tshwarane
172_0080 tj hata ya tshe beletso
172_0081 o se a shwele dikweta
172_0082 science fiction novels
172_0084 e netwekeng ke mohokahanyi wa
172_0085 liberal arts colleges
172_0087 shejulu e phatlaladitsweng koranteng ya
172_0089 ya sethethefatsi tjhefu ya khemikhale
172_0093 ho sa na le ho
172_0095 harvard university alumni
172_0096 bohla o ne a bohla
172_0098 united states secretary
172_0101 le beile pelonghakana a ba
172_0103 matswadisa hlobolang mese eo le
172_0104 sekgopi o ka tshepela ho
172_0105 ho kenyelletswa le la keresemese
172_0107 itoile ka bowena mohlomong le
172_0108 president abraham lincoln
172_0111 di romelwe ho ya tjhaelwa
172_0112 sa o tlwaelang ho se
172_0114 le mtshwao a tshupo a
172_0117 mafura peterole e nyoloha ka
172_0118 bophelo bo botle le polokeho
172_0122 felehetsa ho kgutleha hlakoreng la
172_0123 ba ka hodisang dipoelo ka
172_0126 cricket world cup
172_0127 tlhapa e ne e sa
172_0129 e re nengneng a eme
172_0131 ba bangata kamoo ho ka
172_0134 e lethwethwe o elellwise mokomishenara
172_0136 le ka madungwadungwana ho ya
172_0137 iswe ho ba baholo le
172_0139 profeshene e se e kgathile
172_0140 wa mautse ha dubeha ha
172_0141 eo ho buuwang ka yena
172_0143 hadiindaseteri ho arolwa ha diindaseteri
172_0145 ka ho nyaroha e e
172_0146 re ye re sitele jehova
172_0147 batswadi ba ne ba tsebiswe
172_0148 sa ho vouta sedikeng sa
172_0149 tadimile ka leihlola kaine ho
172_0150 re e se e le
172_0151 na ie seoa se unang
172_0152 a pepeseha o a totobala
172_0154 a bala le ho boha
172_0157 e ke be e rutile
172_0158 ya babokelli ba dikoloto ba
172_0159 e se ke ya ba
172_0160 e ne e le nthho
172_0161 e le o rarahaneng ho
172_0162 bodileng matshwele a sollang a
172_0163 a di utlwisisang le ho
172_0164 le kutlwisisano dihlotshwaneng ke se
172_0166 ka hanelwang ho ba le
172_0167 council for natural scientific professions
172_0168 dikhampaning dikoporasing le baleming ba
172_0170 le ho seholla mmateboho habohloko
172_0171 ke se ke ekwa ke
172_0172 ne a se a utlwetse
172_0174 ba makatsa ka ha ba
172_0175 ha a sa e fuwe
172_0176 na ba se ba thusitswe
172_0177 cite journal title
172_0179 re re re qhwaolla kobo
172_0180 southern african development
172_0181 ya b le ya c
172_0182 lerumo ho kgabola kanono moela
172_0183 obitjhuari ka ha le ne
172_0184 le ho se utlwane bara
172_0187 ho tiisetswa e le ya
172_0188 mafellong a mesifa di ba
172_0189 a mo jakisa jareteng ya
172_0190 re se mo tlatlapile se
172_0191 ba angwang le ho tshwaetswa
172_0194 ha e se e ntshitswe
172_0195 ho re ho se be
172_0198 a butswelana ka tholwana le
172_0199 ke sa na boikgethelo ha
172_0200 ke batlatlapi ba ikotlang sefuba
172_0202 ba reke dijole ho patalla
172_0205 million years ago
172_0206 le manollong ho ikamahantswe le
172_0207 tlhwekiso ya matlwana ke le
172_0208 naval air station
172_0209 re re ye wits ka
172_0211 ka ke sa tsilatsile le
172_0212 ho ne ho se ho
172_0213 ba sireleditswe tlhekefetsong le tlontlollong
172_0214 o e na le sehatsetsi
172_0215 di fumanehe khomputeng ikopanye le
172_0216 ba a phehelwa dinama le
172_0217 east asian countries
172_0218 be o iphasa ka lerapo
172_0219 le ho phomosetsa bamemuwa ba
172_0220 makuleke kruger national park dinaheng
172_0221 a setso le a sepolotiki
172_0222 ka letlotlo le siilweng ke
172_0223 a di botsang ka lewatle
172_0225 kgolong ya ka le tshiung
172_0226 motsotswana ha e le difelekwane
172_0227 west african states
172_0228 uke ichi ni san ji
172_0229 a sa ka a mo
172_0231 qetel long ya boimana ba
172_0232 le ho akofisa bonamo le
172_0234 mokuru o se o sibile
172_0235 ba kgethetsweng ho ba diroki
172_0236 e be re ke ke
172_0237 original game boy
172_0238 ha ba hlomphe mosuwe ya
172_0239 a tsweretse sa tweba e
172_0240 ke ne kekopa matlaa ho
172_0241 e sebeleditsweng kathata le ha
172_0242 on financial awards pfa dinnete
172_0251 e ne e le senokwane
172_0253 a le ka mokgorong a
172_0254 ke ke a phonyoha ke
172_0255 tekanyetso e tswellang ke lewa
172_0256 ha ho na pilisi enjekeshene
172_0258 palestine liberation organization
172_0260 united states capitol
172_0262 re ka be re di
172_0263 di batlisiswe le ho salwa
172_0264 poraevete k h r ba
172_0265 ya bcm le ho hlaisa
172_0266 services development plan wsdp e
172_0267 mo tadime le ho mo
172_0268 na ho ne ho le
172_0269 ka ho re tselatshweu matebele
172_0270 le ho se ikamahanye le
172_0271 dikoloing ho ya ka ho
172_0272 ho mo qosa le ho
172_0273 thonya bonkgetheng ba loketseng ho
172_0275 ho nehelawe ka tataiso ho
172_0276 ho okamelwa ke ditlelereke phethahatsong
172_0278 hlwauweng ka ho ya ka
172_0281 paris peace conference
172_0282 mo sehollake a motsholele maqa
172_0283 dipotongwane ho re tshiu di
172_0286 dumedise ka ho re dumelang
172_0287 le e atlehileng ho fihlellwa
172_0288 articles containing video
172_0289 kotopi le sebuweng ke ya
172_0291 ne a se a thotse
172_0292 batshosi ba tsohellang masimong esale
172_0294 metsofe le ba holofetseng ba
172_0295 sefifi sa phoofolo e shweleng
172_0296 e qotsitswe le ho lokisetswa
172_0298 cola le ditjhokolete di na
172_0299 o bue o ke o
172_0301 lehlokwana le finnweng lefito o
172_0303 se ba e butswela ba
172_0304 ho ruruha ha manonyeletso di
172_0305 european economic area
172_0306 disampole di nehwa ba osts
172_0307 oke ke wa hlakoha o
172_0308 atomic energy agency
172_0310 major league record
172_0311 tshositse ka ho o bolaya
172_0312 mafotholeng e ne e le
172_0313 re le ne le le
172_0314 e thehilweng ho nyehelo ho
172_0318 o robetse a opelwa ke
172_0320 bo se bo le ho
172_0322 o tlohelle ho tjha ntshi
172_0325 ne ke re o mo
172_0327 cape breton island
172_0329 ya ho finyeletsa ditshebeletso bathong
172_0332 ba thontsweng ke sacnasp professional
172_0333 minister margaret thatcher
172_0334 di le mosenekeng ke ha
172_0335 mashaeng empaha ho a ka
172_0336 bo bong le bo bong
172_0337 engwe ho na le ho
172_0339 sa tlhatlhobo le f ho
172_0340 e siuwang poleseteishene ke ya
172_0341 le ke na le toro
172_0342 ha ho tluwa mangolong a
172_0344 kansas city chiefs
172_0345 di fihlile mohwang e sa
172_0346 tsatsi le tjhabang le le
172_0347 o di sebedise ka le
172_0348 states army air
172_0349 o sa ka wa re
172_0350 ho ya dihela dikgala sware
172_0351 e le ho di abela
172_0354 le sekgobo ho qhellwa ka
172_0356 ya ho hira ikopanyeng le
172_0357 ya mmampodi kgwaolla ditswakotleng jm
172_0358 south west england
172_0359 helang le ho hlophisetsa pan
172_0360 o e tlatse ka ho
172_0362 ho kopanela tekenoloji phetisetso ya
172_0364 o patisaneng wa phumano ya
172_0365 le bothong o ba le
172_0366 re makau ke sebapadi sa
172_0367 le vii ho diswa ho
172_0369 e le ba moradi wa
172_0370 le behetsweng ho ba la
172_0373 le halofo ho isaho a
172_0374 bronze star medal
172_0376 le ojwa le sa le
172_0377 roman catholic monarchs
172_0378 ba polasi ba be le
172_0379 ne le le mading a
172_0380 fact date december
172_0381 toustu bisekiti le raske dinong
172_0382 ditaba maikemisetso maemo le sebopeho
172_0383 ya ho ingodisetsa sephethephethe e
172_0384 ba dipatlisisomme a mo eletse
172_0385 qetella e le diqhwala ka
172_0386 eo a e sietseng rehauhetswe
172_0387 sehlooho se sekasekwa le ho
172_0389 belehwa ha e ba ntshe
172_0391 ha di tswane ba ba
172_0393 dikgoka le ho kwena ha
172_0394 kasefuthu le ka lekgetlo le
172_0395 potlolomente e sootho e mabanta
172_0396 ba a tsieleha ha ba
172_0397 o sa hetle le ka
172_0398 efe kapa efe e ka
172_0399 ya kekeletso ya ho ba
172_0400 ho tshwaetsa ho phatlalletseng ha
172_0401 matsapa a ho ntshampa eo
172_0402 prime number theorem
172_0403 ba a re nyatsa ha
172_0405 ke ya html le ha
172_0407 a botona marong a ntshuwang
172_0408 monyenyaneyena o ne a enale
172_0409 mebaraka e bulehileng kgwebisano ka
172_0413 ho na le qhoku e
172_0414 a lomolwe ka lelomolo la
172_0418 ho ya ka ho hahuwa
172_0419 ba ka fihlellang ho ka
172_0420 ho ya ka molaotheo wa
172_0422 makopanyi maemedi le mahlalosi ho
172_0423 ho hlwekise khotone le h
172_0425 hlahlamela dithaba ha makgomo a
172_0426 ho itsebahatsa le ho utlwahatsa
172_0427 ho ya hlwekisa le ha
172_0429 ke ya di heleng ho
172_0430 dibasari ka ho ya ka
172_0431 a sa kgotsofatse tleleime ya
172_0432 south china sea
172_0433 ya phahello e lebelletswe ho
172_0435 a rabaraba v o ipotsaka
172_0438 le matheriale oo mohiruwa a
172_0439 lethathama la tlhekatlheko le ho
172_0441 re ho etsahalang hantlentle na
172_0443 a ne a thobise ba
172_0446 aithunya ho ne ho sa
172_0447 a na le moetsi le
172_0448 a e ngotseng le ho
172_0449 ke a iketsisa ha ke
172_0450 phethelwe ha ho thetheswa bohadi
172_0452 wa bonaha re se re
172_0453 e sa ntsane e le
172_0454 state university alumni
172_0456 qale ho ebesela a ntjhafale
172_0458 sa madibase mo nyeka hotloha
172_0459 re be re phehisane ka
172_0462 ha ho na ntwa e
172_0465 mohlohlwa o rapame se a
172_0466 le amo kodisa a be
172_0467 eo o e belaelang ho
172_0468 esita le ho ba le
172_0469 supa matstasi a ho qala
172_0470 di iketlile di ja lekomo
172_0471 la ka ke dudu re
172_0472 market prices estimated
172_0473 ne a sa halefe vmotsotso
172_0474 ha mothendari a ka phumola
172_0475 mopeleto le tshebe diso e
172_0476 ho mphara ka mashano a
172_0478 e akaretsang le mokgahlelo wa
172_0479 major professional sports
172_0480 le kgabisa ka bophatshwana ba
172_0481 a ne a le sekolong
172_0482 ya boitsebiso ho thibela pepeso
172_0483 united nations standard minimum rules
172_0486 o kgothaletse kamohelano ho ya
172_0488 federal trade commission
172_0489 mabokose diteranka le makase a
172_0490 ya seyalemoya le theleveshene di
172_0492 nuclear power plants
172_0493 cite web title
172_0494 ba ka di lebellang ho
172_0496 dipereng le ho beiseng ka
172_0497 ha ke ne ke tonne
172_0498 dihlahiswa ho pakela le ho
172_0500 native american culture
172_0501 united states senate
172_0504 ha a se a rutehile
172_0508 ma ntswe ka boiqapelo bo
172_0509 rupella le ho kwetlisa ho
172_0510 le ho tsamaisa maphelo a
172_0512 monyako o sa notlelwa ho
172_0514 ho ya qhekella mofumahadi ke
172_0516 eo o e filweng potsong
172_0520 ho o besa ba polela
172_0521 sa leke ho mo nyokola
172_0522 mo kwala molomo ka mpama
172_0523 di sa di bolaye di
172_0524 north american plate
172_0525 je mabele a matjha masimong
172_0526 le matitjhere ba se ba
172_0527 e phethwe boramesebetsi ba ka
172_0528 ya dikarolwana le value matices
172_0529 o e ise ho lekgathe
172_0531 e ne e sa hlophiseha
172_0532 ba re e mafi ha
172_0533 fapana ho tloha temeng e
172_0534 o ne a kgenela ka
172_0535 ho fediswa ha kgalemo ka
172_0537 o fodile a mo nwesa
172_0538 beatrice a be a le
172_0539 probability density function
172_0540 a ho hlalosetse le ka
172_0541 le tlhokahalo ya lebotho la
172_0543 le ho sebeletsa bonngwe re
172_0544 be le tekatekano le ho
172_0545 le thakgiswe sebuweng o a
172_0546 york stock exchange
172_0547 le ha a sa e
172_0548 dead link date
172_0549 ke e tsebisisa hantlehaholo le
172_0550 ho lokollwa ho itshetleheng ho
172_0551 mmapelepele e ne e le
172_0553 bonokwane bo kenyeletsang thepa ya
172_0554 ao bahlahlobi ba mabatowa ba
172_0555 peto le ha ho na
172_0556 inehele sepoleseng e se e
172_0557 ba se ke ba itshetleha
172_0558 ho mamella manyampetla ana a
172_0561 a sa lefeng sekoloto sa
172_0562 o balehang ho bebofaletsa motshwai
172_0563 eo ba ka e nkang
172_0565 ha e ba le tshoso
172_0566 kotsing eo o amehileng ho
172_0567 ba batlileng ba mmolaya ka
172_0568 ho fihlelleha ho fihlelleha ho
172_0570 sitisitswe ke ho se be
172_0571 science fiction themes
172_0573 ho ne ho hlakile ho
172_0574 ke lebale ho tu ka
172_0575 e totobaditswe ka botebo mohatong
172_0577 internet relay chat
172_0578 e ka shadingwang ha ho
172_0579 ba leloka boa o amang
172_0580 ho latelwe ho sayeng ka
172_0581 ha e sa le wa
172_0585 ho ikokobetsa le ho se
172_0586 ho ka be ho le
172_0587 o be o fane ka
172_0588 ba bokana mmathabo a rwala
172_0589 ho ikgetha ho disosa le
172_0590 lelapa la abiele lelapa le
172_0591 ha e na tlhophisetso eo
172_0592 ho sosobana ha diaparo le
172_0593 western united states
172_0594 wa albert montasi sweni o
172_0595 e ka ho na le
172_0596 sa foleng a holofatsang a
172_0598 wabatho a ferekana le ho
172_0599 sa lekgala le babang e
172_0600 ne ke se ke phefomolohela
172_0601 wa ka abolela ha ho
172_0602 ha a tloswe ha a
172_0603 wa bolelele bo boletsweng ka
172_0605 le seta ha ba sa
172_0606 real gdp growth
172_0607 ha moqosuwa a hloleha ho
172_0608 mmokelletsi ya lefshwang khomoshene ya
172_0609 ke se ke itshwetse mokgubu
172_0610 ne o ikopa ho ya
172_0611 o etselletsa ha ke re
172_0612 ji go roc sichi haj
172_0614 ha e a dumellwa ho
172_0615 wa ka ke motshehetsi e
172_0616 o tswetswe a le lekgutla
172_0617 bo tsanyaola modidietsane bare mmopi
172_0618 le utswitsweng jj le b
172_0619 se mo sunya sephephetjhana se
172_0620 ba bangodi babohi le ho
172_0621 qalehong ya kereite e ka
172_0622 mo hlanohetse ho mo hlanohela
172_0624 o ne a sa hlekefetse
172_0625 nyarela ka fesetere oo ke
172_0626 tshepahala ha botsamaisi bomolao boikarallo
172_0627 di sa fetohe bophelong ba
172_0629 k o ke ke wa
172_0631 wa silivera o pshatlehile ke
172_0635 di timanwe e se bohobe
172_0636 ke ke ra ikotla difuba
172_0637 sa d i ha se
172_0638 ha ba tshwaraneng le ho
172_0639 ke be e e be
172_0640 dithuto di tadingwa di na
172_0642 eo ba ka nehelanang ka
172_0643 ho ke ke ha o
172_0644 sa kgahliseng e be re
172_0645 ke a buellwa ke leqwetha
172_0646 ke mala ke nama ya
172_0647 oo o re phetelang ka
172_0649 o se o iphetotse moleleri
172_0650 mo eletsa ka ho re
172_0651 ka e ne e le
172_0652 principal ideal domain
172_0653 hlophisitswe ka ho ya ka
172_0655 air force bases
172_0656 ho petsoha le ho epeha
172_0657 e be o a iphetela
172_0658 ya sehlotshwana e tadimana le
172_0659 bontshwa ka ho kengwa ka
172_0662 office administration ka ngollano ha
172_0663 entela feberu e tshehla ha
172_0664 diseili faeba tlelase patsi le
172_0665 ya sephiring ya ka le
172_0666 bo boletsweng leqepheng la ditaelo
172_0667 ho hodisa le ho totobatsa
172_0668 malapa a tjamelane le diphepetso
172_0669 major political parties
172_0670 ha e ya ka ya
172_0671 ka ho ya ka tshitshinyo
172_0672 e le nonyana ya ntlwanatshwana
172_0673 e lokelwa ho saenwa ke
172_0674 phomolo le ka tjhentjhana le
172_0675 ha ho so etsuwe o
172_0676 sa ho ngodisa khansele ya
172_0679 ho tla fanwa ka tsona
172_0680 le ho itebala ho re
172_0681 khanselara ya woto e ka
172_0682 e nyolotswe ka diphesente tseleshome
172_0683 ka bofokodi e ba le
172_0684 e ne e le mohobelo
172_0685 international red cross
172_0686 ka thota ha ba tlolela
172_0687 o ne a mmalla ka
172_0690 ke raditjhelete ya hafang ka
172_0691 a tlwaelehileng a dipuisano ka
172_0692 a mo tlweba ho ya
172_0693 exclusive economic zone
172_0694 eo a e ya ka
172_0695 ka kuno e lekanyeditsweng e
172_0696 v ka ho re le
172_0698 e sa potoloheng e utlwisisehang
172_0699 di di tsamaise di di
172_0702 jeseng ditheohelang e le ka
172_0703 ya setereka sa maseterata wa
172_0704 ho se ho se monate
172_0706 hwa be ho se ho
172_0707 tankana se lokisitsweng ka ho
172_0708 o sa tshwasetseng ho ja
172_0709 e thusang ka ditjhelete e
172_0710 mmaletsatsi haesale e le mmaletsatsi
172_0711 le ha ba ka mmitsa
172_0712 ngolle posekarete o mo thoholetse
172_0713 peisong le ha ho le
172_0714 kamolomo o manyaditsweng ka mafuraa
172_0715 ho bentsha tapeiti o a
172_0716 ho hlaloswang le ho buisanwa
172_0717 ya ho bulela bongatane le
172_0718 belaellwang a utswitse diruuwa jj
172_0719 elections took place
172_0720 o itheola seriti ha o
172_0721 a le abilweng ke palamente
172_0722 ke be ke o tlatsela
172_0724 a nya matsete a ba
172_0725 seratswaneng sa d i ha
172_0726 batsamaisi ba mananeo le dibohodi
172_0727 ba sekhweshemetsa ba ya ba
172_0728 a pota ha ke na
172_0729 ho ba motswadi e motjha
172_0730 e ne e hatelletswe ka
172_0731 hoba le tshware ditherisano le
172_0732 a o hlapanyetsa moreso ho
172_0733 ke ho qhwala ho mo
172_0735 o ithutile ho le ho
172_0737 le g thuo le ditabatabelo
172_0738 oo e seng wa phahello
172_0739 ba ne ba tlwahetse ho
172_0740 le ho hasanngwa ha dikhondomo
172_0741 mohlomong e be e le
172_0743 na ha ke re ho
172_0745 morabaraba thellisane phupekalefe di ne
172_0746 mekgele e wetse ka mahlong
172_0747 ho eo o itlwanang le
172_0749 lelatodi la sekgoba o be
172_0750 e se e qhalane e
172_0751 track speed skating
172_0752 eastern bloc countries
172_0755 ha o se o ikentse
172_0756 fact date january
172_0757 ba sa ikamahanyeng le bcea
172_0758 lepetjo ke mobolelo o mokgutshwane
172_0759 setsheho sa ka e le
172_0760 o thatafallwa ke ho sebedisa
172_0761 eastern orthodox church
172_0762 o se ke wa nkuka
172_0764 e ba o pepeta senotlolo
172_0765 bolokwe di lokiswe le ho
172_0766 hanwa ha mokgatiso a sa
172_0767 ya meputso eo ho ka
172_0768 kgweding ya phato mantsiboya ke
172_0769 matle haholoholo ha ho shejwa
172_0770 a e sebedisitseng phehisanong e
172_0773 a sa sela meqomong a
172_0774 le terata e hoketsweng makapanyana
172_0776 nyontse a tenehile a sa
172_0777 foreistata mamina e ka a
172_0778 a oona a ditsamaiso ka
172_0780 ne di mphapanelana di mpakela
172_0781 o ne adumellana le bahlalefi
172_0782 ne di hlwekile di sa
172_0784 bohlahlobi ba semolao ba ditjhankane
172_0785 kgannela boitshwarong bo ka tlisang
172_0787 ozone layer protection
172_0788 fact date march
172_0789 ha o mpona ke le
172_0790 e bapatsang le e fepelang
172_0791 e ne e ipoqa seretseng
172_0792 ya holang ha a le
172_0794 central processing unit
172_0796 ka ho ya ka mehato
172_0797 ngola le ho nehelana ka
172_0798 phedisano a shebane le ho
172_0799 tennweng ke kedibone e mesesane
172_0800 ne e le ya v
172_0801 ya ho bora e sa
172_0803 ho ba boemong ba ho
172_0804 ka kgahlwa ke none e
172_0806 le tumediso ya ka ka
172_0807 o se o ikentse kgodumodumo
172_0808 e ne e mo rute
172_0809 bophirima boloi ba mampolane bo
172_0810 le ne le kgaphatseha ho
172_0811 ba sa itekanelang ba tsofetseng
172_0812 wa ka ka bokgoba ba
172_0813 mantsopa ha a sa mo
172_0814 ba e tobileng mehatong ya
172_0815 re sa lwana ha e
172_0816 high school students
172_0817 re ke ke ra ikwala
172_0819 military coup
172_0820 mo tsokotsa ya ba ya
172_0821 be di se di sutelwa
172_0822 afe ao ho ikemiseditsweng ho
172_0823 e le afeng moikopedi a
172_0824 e se e le dithungthung
172_0825 se o le lekgoba la
172_0826 dihela dikgala molatong ono wa
172_0828 boshodu bo ne bo le
172_0829 tshwantshiso ee na o ka
172_0830 hamohau a mo shebisisa a
172_0831 di a behwa ka tate
172_0833 he ka ho ya ka
172_0835 o be o sulafallwa ke
172_0837 baruti ba ne ba le
172_0838 tobana le ho kenyatshebetsong o
172_0840 lehano e sa kgoneheng ha
172_0841 re a phahame a ke
172_0843 ya motabo o sa itshireletsa
172_0844 tlhahisoleseding yohle eo o re
172_0845 org wiki wikipedia
172_0846 kentswe bonyane mohlala o le
172_0847 toropong e ne e le
172_0848 ha di ke di be
172_0849 kokosile selepe a loloma ke
172_0850 tsalefatshe ke majoro eo ha
172_0851 eo e ne e jellwa
172_0852 ka baka la ho kula
172_0853 maintains diplomatic relations
172_0854 french revolutionary wars
172_0855 diwoto di ka ba le
172_0856 science fiction films
172_0858 be o le modudi wa
172_0860 e sa etseng phaello di
172_0862 metal musical groups
172_0863 ha e le ho kgutlela
172_0864 ha di na kamano le
172_0865 a ka na a phahamiswa
172_0866 mosotho le ha a se
172_0867 a boikarabello v e kgothalletsa
172_0868 ke o antsha phooko ha
172_0870 e kaale ha o se
172_0871 e a thibelwa ka ho
172_0872 a ho na le sekgeo
172_0873 ya mabidi o ka se
172_0875 e se bo kgodisang hakaalo
172_0878 tlaleho e itshetlehileng bokgoning e
172_0879 melata le ho se be
172_0880 sa thabelwe e be motlotlohadi
172_0882 ya ho ipuella ho eo
172_0883 ha se re mmopi o
172_0884 a diranta ke ho re
172_0885 o ne a sa e
172_0886 ho hlomathisa dibili le ho
172_0887 ba ha re kokololo le
172_0888 ba ya ntshehisa ke le
172_0891 lebeletsweng tshebeletsong ka ho ikgetha
172_0893 ya hleng a tiiseditaba le
172_0894 ngaka e laolang meriana ya
172_0896 ke tshwanelwang ho o hlwa
172_0897 na o a e phehisa
172_0898 ha a se a hodile
172_0899 ya ho thonngwa le d
172_0901 states supreme court
172_0902 ee di ne di etsahalla
172_0904 ha e na thusoho na
172_0905 ya makatsang e le ka
172_0906 ke moikgohomosi ya sa tsotelleng
172_0908 e ke be e e
172_0909 to information act ke ho
172_0910 ke ke be ya phaellwa
172_0911 lebisang popong ya tlhalohanyo e
172_0912 ho itekola le ho itshupa
172_0913 o ntlela ka kedibitlahadi ya
172_0914 moralo o lebisa tlhahisong ya
172_0915 bo tlasetlase bo ikemiseditse ho
172_0916 e nyarosang a be a
172_0917 dihetse tekete he mohaeso o
172_0918 new prime minister
172_0919 mo thetsa ka ho re
172_0920 bo hodimohadi ba boprofeshenale nonoso
172_0922 free trade area
172_0923 hahlaula ha e le boqheku
172_0924 se emele ho phatloha ho
172_0927 a se hlabela hloohongha a
172_0928 popular tourist destination
172_0929 eo re ka mo kgothollang
172_0930 direng ba mo seohela ba
172_0931 o sa le motswetse e
172_0932 re be ngatanngwe ke pheto
172_0935 ba ke ke ba jala
172_0936 o sa dumellwang wa ho
172_0937 ho ya ka bafuputsi ba
172_0942 ba fuwe dipilisi ha ba
172_0943 a re itjhuu itjhuu itjhuu
172_0944 bomolao boikarallo ho ba le
172_0947 na le ho bakang ho
172_0948 mahaladitwe le ditshehlo ka ho
172_0949 a holetseng ba kwalehile ba
172_0950 e na le boikarabelo ba
172_0951 ho ya ka dikereiti mephatong
172_0952 se phethahetseng setjhabeng le dibakeng
172_0955 be e se e kgutlisetswa
172_0956 setsi le ho ba le
172_0957 o se kgitla le ho
172_0958 e ne e le ka
172_0959 le phokotsehong ya ho putlama
172_0960 mo hatelletseng e ba mohlodi
172_0961 ho se o lefise ditefiso
172_0962 sa cricket ka ho ba
172_0963 ho bokella le ho kopanya
172_0964 di buwang ka boikobo bo
172_0965 ne ba seretswe ha mefenetha
172_0966 le ho ba tsietseng ya
172_0967 bo ke ke ba fetolwa
172_0970 metjha ya kahare ka ho
172_0972 kgomathisetse tshaeno le ho hatisa
172_0973 ho ba pepenene le ho
172_0974 a ke ke a fetolwa
172_0975 manane le dinehelano le ho
172_0976 le a phunngwamme moloio a
172_0977 le nehelano e nang le
172_0978 thenthetswa le a nyonya le
172_0979 ba mapolasing balemi rui le
172_0980 boyona e ke ke ya
172_0981 la phapang eo e a
172_0982 o lo nkopela tafo ke
172_0984 di be di mela manaka
172_0985 neho sa kahaeba le lerataka
172_0986 le kelohloko e hlokolosi ya
172_0987 baena le dikgaitsedi ke thatano
172_0988 ba hema e re ha
172_0989 e ka nna ya se
172_0990 ne ba loha leqheka lee
172_0991 ho ne ho phethesela ke
172_0993 malomao ya o hodisitseng ho
172_0994 ho ikakgela kasetotswana ho kenyeng
172_0995 ho na le dingongoreho ka
172_0997 na ha o ka kgethelwa
172_0998 yare ha ba kenella ka
172_0999 santaco re ke ke ra
172_1001 e sa hlokomelweng ka ho
172_1004 a le opela mahofi lekgutlana
172_1005 ka botjhabela ho ho ne
172_1006 se thibelang mafafatsane a ko
172_1008 dube thankga a be a
172_1009 o a qeaqea ha a
172_1012 bangata ba ne ba se
172_1013 o re tlotlolotse re ne
172_1014 dikgomo ha di na motlohapele
172_1015 a se a bina sefela
172_1016 semoya a tsamaisanang le tlhwekiso
172_1017 le lesisithehonyana ho ka phunya
172_1019 le ha hothwe ke lenqosa
172_1020 ke semathi se seholo o
172_1021 e ne e le sehwabana
172_1022 ho ipapisitswe le melawana ya
172_1023 se saenetswe ke baamehi ba
172_1025 ho se hlomphehe ha ho
172_1026 united nations peacekeeping
172_1027 tsena e ne e le
172_1028 ho sa ohlweng le ho
172_1030 ditjhate diphousetara dinepe ditshwantsho diselaete
172_1031 steyn delport a fa mmueli
172_1032 le ho senolwa ha sephiri
172_1033 o ka be o amohetse
172_1034 ha ba hlajiwe ke dihloong
172_1036 wa nomora ditlhokomediso le ditemoso
172_1038 ha a ka kgaotsa ho
172_1039 ka e se e le
172_1040 etsuwa ka ho ya ka
172_1042 ke ne ke le bothateng
172_1043 martin van buren
172_1044 a lehodimo a matle ke
172_1045 qoqwa ho a tshehwa ho
172_1047 t o rekile senomaphodi ledikuku
172_1048 melongwana e tshasitsweng kaletshwana le
172_1051 wa dithako ke hohloka a
172_1052 o bohlile ka letheka maru
172_1054 nka ka re ke a
172_1055 ha re a phahame a
172_1056 ba re ba tlosa letshweya
172_1057 ithutla a ba a re
172_1058 o be o sisinye ditlhahiso
172_1059 ya a le e le
172_1061 great leap forward
172_1064 baholwanyane ba bananyana e ne
172_1065 ke o sekehele sello sa
172_1066 e kengwe setempe e be
172_1067 a sa ka a a
172_1068 ke na le mathatanyana a
172_1069 hothwe ke lenqosa le o
172_1070 ya o rekisetsang pholisi pholisi
172_1071 se a sa ba tshepe
172_1072 ha o se o phethetse
172_1073 e ne e le le
172_1074 e ya e honyela o
172_1075 se ho phahlwa ho phothasela
172_1076 re ha ke mametse pina
172_1078 e ne e le ntsho
172_1079 ka ho otloloha lenanetataisong la
172_1080 magauta e se e le
172_1081 ka kaho ya institjhushene le
172_1082 ba hlahlobilweng e le ba
172_1083 ba ba fetole makgoba ha
172_1084 mabitso a dibaka la afrika
172_1085 le seroto se sa ribollweng
172_1086 ke re ke moihlwe ho
172_1089 se le hopotse ho ya
172_1090 id le ya tshupiso ya
172_1091 karolwana e ntshitsweng koranteng jj
172_1092 a ke ke a hlola
172_1093 o se o ntlela ka
172_1098 a behela ba mmokanetseng a
172_1099 ho teba le ho tsepama
172_1100 ho le mahleke ka hohlehohle
172_1101 phemiti ya ho romela hlapi
172_1102 ke ke a kgona ho
172_1103 joyene e fedileng ha a
172_1105 ne e le bitleng la
172_1106 dutch east india
172_1107 ba di tswasitseng le ho
172_1108 ke wa etsahala le kgale
172_1109 serapeng sa a a nehelane
172_1110 di ye ho ya ka
172_1111 ka mehla ke dula ke
172_1113 a nehuwe tesello ya ho
172_1114 ya lehloyo ha e adumellwa
172_1115 botjheng ba ka ke ne
172_1116 e ha ella ng ya
172_1117 e le ho ipeha ka
172_1118 ka ho latellane letswapong la
172_1119 a ke ke a phela
172_1120 le ho alashwa ka ho
172_1121 le tshusumetso e leeme e
172_1122 e thakgoha ke ha ho
172_1123 bo bokaalo ho bannanyana le
172_1126 ha ho eketswa metheong e
172_1127 boyabatho eka makatikati o tena
172_1128 stephen jay gould
172_1129 e le sehlomathiso sa a
172_1131 ha ho sebediswe di a
172_1132 ka tholwana le mapolesa a
172_1133 united states army
172_1134 di fokaela sebaeng ke o
172_1135 o ka ikisetsa samane ka
172_1140 le divaerase dibakethiria le c
172_1141 ba difariki ya ka ha
172_1142 ha ho se ho fanwe
172_1143 centres di lrdc e le
172_1144 le menyenyetsi ya ho se
172_1145 le sekgukhuni o ne a
172_1148 o ne o mo sotla
172_1152 o na le mohono o
172_1154 ya ho lebela ya bopolesa
172_1155 ke ha le se le
172_1157 ho alashwa e sa le
172_1159 e tshopodi e le ka
172_1160 mehoding eo o e abelang
172_1162 ho na le e le
173_0001 be e se e kgutlisetswa
173_0002 setsi le ho ba le
173_0003 o se kgitla le ho
173_0004 e ne e le ka
173_0005 le phokotsehong ya ho putlama
173_0008 sa cricket ka ho ba
173_0013 bo ke ke ba fetolwa
173_0015 o ne a sa a
173_0020 a ke ke a fetolwa
173_0026 boyona e ke ke ya
173_0028 eo e ke ke ya
173_0029 di be di mela manaka
173_0033 ba hema e re ha
173_0034 e ka nna ya se
173_0037 ke ke ba ba le
173_0038 malomao ya o hodisitseng ho
173_0041 e le tlaka le a
173_0050 ka botjhabela ho ho ne
173_0052 ba tjhetjhe ha e le
173_0053 dube thankga a be a
173_0054 o a qeaqea ha a
173_0055 ka matlotlo ao re a
173_0056 ke ke wa ba le
173_0072 tsena e ne e le
173_0073 ho sa ohlweng le ho
173_0080 ha a ne a se
173_0082 ha ke ne ke le
173_0083 ha a ka kgaotsa ho
173_0084 ka e se e le
173_0085 etsuwa ka ho ya ka
173_0086 ka ha ba ne ba
173_0088 martin van buren
173_0091 o se ke wa be
173_0098 wa ka eo ke mo
173_0099 nka ka re ke a
173_0100 ha re a phahame a
173_0102 ithutla a ba a re
173_0104 ya a le e le
173_0107 e re ha a se
173_0112 a sa ka a a
173_0116 se a sa ba tshepe
173_0117 ha o se o phethetse
173_0118 e ne e le le
173_0119 e ya e honyela o
173_0120 se ho phahlwa ho phothasela
173_0121 re ha ke mametse pina
173_0122 modulasetulo le motlatsi wa modulasetulo
173_0123 e ne e le ntsho
173_0128 ba ba fetole makgoba ha
173_0129 mabitso a dibaka la afrika
173_0130 le seroto se sa ribollweng
173_0131 ke re ke moihlwe ho
173_0132 best supporting actress
173_0133 wa tlhware ha di lome
173_0135 id le ya tshupiso ya
173_0136 karolwana e ntshitsweng koranteng jj
173_0139 african union member
173_0140 republican national convention
173_0145 ho le mahleke ka hohlehohle
173_0147 ke ke a kgona ho
173_0150 ne e le bitleng la
173_0151 dutch east india
173_0153 ho ka be ho se
173_0154 ho le leratanyana le thibang
173_0155 waseithati ya tshepileng ho itshwarela
173_0157 a tiisa ke a hlapanya
173_0161 ruburiki eo o e fuweng
173_0162 moputswa sa masumu wa dithako
173_0163 ha ho ya emellwang ka
173_0167 pope gregory
173_0169 ke a ba a e
173_0171 ha di le ha bo
173_0172 united nations security
173_0173 eo o ne a kgabelletswe
173_0175 a tlohe tekenikonong ya witwatersrand
173_0179 e ne e le moqebelo
173_0180 random variable
173_0181 a mesebetsi e ngolwang potefoliyo
173_0183 na le tjheseho ya ho
173_0184 a fumanang mohlahlabuwa a arabile
173_0185 e be e o jesetse
173_0187 ha ke re ke ka
173_0188 ha e se a bontshitsweng
173_0191 le dipotongwane ho re tshiu
173_0194 barekisi ba dikoranta ke ha
173_0195 religious organizations established
173_0197 video game console
173_0203 di loketse bomang ba dilemo
173_0204 mo fa matl a fe
173_0205 mooki tliliniking e ka marantha
173_0206 e se e le wa
173_0208 e o phehise hlama ka
173_0209 academy award nomination
173_0211 soma leho nyefola se sa
173_0214 junior high school
173_0215 ya hlokangmasapo ke ne ke
173_0216 buswa le ho laolwa ke
173_0218 hobositsweng ka kgoboso eo ke
173_0219 thajana ya mapungubwe kamorao ho
173_0220 ya ho itshebetsa le ho
173_0222 butle ka ho betsa ka
173_0223 ha ho le ba mo
173_0225 ho ka ikopangwa le iucn
173_0227 f a ka laelwa ho
173_0229 hlwahlwa tjhebelopele le pono e
173_0230 mopresidente mandela o ne a
173_0231 humid continental climate
173_0232 o re o tshwenyana le
173_0233 pope paul
173_0234 e ke ke ya leshwa
173_0237 di didietse ha di ka
173_0238 e kojwa e sa le
173_0241 ba neba e buela sekgukgung
173_0242 bo ne bo methwe ke
173_0243 mdnb le ho rala mekgwatshebetso
173_0244 orbital angular momentum
173_0249 a akgetse setipana sesesweu sa
173_0251 re ke a o kgalema
173_0253 ka booker t big show
173_0254 ya boqapi e a nehelwa
173_0257 kahong ya maitemohelo thekenoloje le
173_0258 moshweshwe moshwashwaila ya e ba
173_0259 o a tshabeha e sa
173_0260 e teletsana ho e henahena
173_0262 international monetary fund le ditheo
173_0263 jo ke eo a kwala
173_0264 eo ke e labalabelang ha
173_0265 phetoho phedisanong ya semelo le
173_0266 o tshwanetse ho ba le
173_0267 le ho tshireletsa baletsaphala le
173_0268 atlantic slave trade
173_0269 e tshetse seturupu se se
173_0270 ho ka ba le ngangisano
173_0271 international olympic committee
173_0272 se angwe ke dikokwanyana lediphoofolo
173_0273 of sa hpcsa e sa
173_0274 phephetso eo re tjamelaneng le
173_0275 ba ke ke ba timelwa
173_0277 national geographic society
173_0278 hokelwa e le ho kgutlisetsa
173_0280 e fosahetse athe ya bobedi
173_0285 hodima a se a re
173_0286 na mosadimoholo o ne a
173_0287 boramapolasi ba ntseng ba hola
173_0289 ba re le dipampiring e
173_0290 ha monna a mo elelliswa
173_0291 ba lahlehileng e ya weposaeteng
173_0293 american nobel laureates
173_0294 ka la moshweshwe moshwashwaila ya
173_0295 phamokate din a le ketsahalo
173_0296 cite book author
173_0298 a belaela ha atshwanetse ho
173_0300 academy award nominations
173_0301 day saint movement
173_0305 ne a se a roballetse
173_0307 professional sports teams
173_0310 ho se tsotellwe ho se
173_0312 so fele tlhophollo ya ho
173_0313 ha o sa di hlokomele
173_0315 ba di emelang baemedi ba
173_0316 wa kgwedi le kgwedi o
173_0318 na samadula o ne a
173_0322 di se o tshwenye o
173_0323 le kgaphatseha ho setloholo sa
173_0324 tshimolohong o tsebile e sa
173_0326 los angeles area
173_0327 se lebelletsweng k h r
173_0329 ho na le mahlasedi a
173_0332 ho hlahloba le ho ntjhafatsa
173_0333 ho ba le phihlelo ya
173_0336 ba ne na ye ba
173_0342 ka ho sisinyeha ho hosesane
173_0346 le ho tsetela le meruo
173_0347 le diqhwaha le dipudumo ho
173_0352 le ho lwantshana le botlokotsebe
173_0354 le ho bohehang ho sa
173_0357 le he e ye e
173_0358 o re bopileng ke a
173_0359 chicago white sox
173_0360 ka letsholo la ho baballa
173_0361 e kathoko ho tlhopho e
173_0365 le ho mo qhobella majwe
173_0366 booki di lefelletswe kemosuwehlooho tsholo
173_0368 tatello le karabelo phehella ho
173_0370 ke maranran g a fepelang
173_0372 british overseas territory
173_0373 le dintwa vmme e ne
173_0374 ho hlotjhwa ha ba di
173_0376 o tswile kotsi e mpe
173_0377 dikgaolo le ho re hlahisetsa
173_0378 largest ethnic group
173_0380 roud ya wto re kgodisehile
173_0386 re e hlaolele re sietswe
173_0387 efatshe wa rakebi selemong se
173_0390 ha ho na ho ba
173_0392 se ne se hlabehile habohloko
173_0394 le bonase ya kheshe eo
173_0397 molamu o kopane le tshepe
173_0400 badan pusat statistik
173_0401 ha se etsahale ka ho
173_0403 ho ya mo nkisa mokotla
173_0409 ha o se o ngodisitse
173_0415 ho ya ka mosebettsi wa
173_0418 screen actors guild
173_0422 ludwig von mises
173_0424 o ne a sa suthe
173_0426 a le tipatipa ho ya
173_0427 eo o sa e utlwisiseng
173_0428 european union le ahile diphaposi
173_0430 supreme court ruled
173_0434 khomishene e ikemetseng ya dikgetho
173_0435 ho se balehe le ha
173_0441 eo ha e ka kgaoletswa
173_0442 o ne a kgabelletswe ka
173_0443 ya projekte le kananelong e
173_0448 science fiction convention
173_0449 se tshwasang dihlapi ke sekepe
173_0451 d e le f ba
173_0452 american football conference
173_0455 onelopele ya tjhata ya ho
173_0456 burundi comoros sudan haolo ho
173_0459 gibbs free energy
173_0461 ha o ya ho e
173_0462 a ne a le bodutunyana
173_0463 ka sms sms benefit lookup
173_0465 balaodi le bahlakisi ba dibuka
173_0468 late eighteenth century
173_0469 ho re a ye le
173_0470 hloko o nto araba dipotso
173_0471 ba ya phasaphasa e tjhaile
173_0473 madison square garden
173_0474 ho fopha ho sututsa ho
173_0479 e yeng e be ya
173_0480 ho re moreneng ho hlahile
173_0482 na le tokelo ya ho
173_0483 basebetsimmohomemorantamo ka tlhokomediso ya ho
173_0485 ka ke ne ke le
173_0489 ha ke e hloke le
173_0492 ka ho ya ka ho
173_0494 re hoetsahetse kgoba e se
173_0496 e lwanela ho ya ho
173_0498 english civil war
173_0499 ka ikela masihlwane o nea
173_0500 a ne a sa fihlelwe
173_0501 e le o unneng ka
173_0503 sedulwamatswapong ha ho le hobe
173_0504 civil class
173_0509 leru le lefubedu t w
173_0510 chief executive officer
173_0512 a bo hlothile e ya
173_0516 seturupu se se kgubedu botlolwana
173_0517 e tlatsitswe ka ho phetahala
173_0519 se mo ise yunivesithing o
173_0523 o re ho a be
173_0525 e ke ke ya eba
173_0529 e itlhalosa e qadilwe ke
173_0530 a letsebe le sa le
173_0532 ne o re o a
173_0536 poho ya mokgerane e ka
173_0538 cite press release
173_0542 ha o pepeneneng o ka
173_0544 re qhau a mo sudubanyafatshe
173_0545 unrestricted submarine warfare
173_0546 wa thuto le thupello e
173_0549 moepa oo ke tshwanelwang ho
173_0554 pope pius
173_0555 seratswana sa d ha e
173_0556 ba re ha a na
173_0557 ho ithuteng le ho rutweng
173_0558 le adv j de lange
173_0559 ya remittance advice ya nothisi
173_0560 american football league
173_0563 wolf whistled le ho betwa
173_0564 ho ya ka dikarolwana le
173_0566 hose phahle makunutu abonaj k
173_0569 inspector of mines ciom ya
173_0571 kutu ya sefate e le
173_0572 re di etse mohatla kgwiti
173_0574 re ha o a thaba
173_0575 enngwe a le akgele ka
173_0576 na ba e rutilwe ke
173_0579 hiruwa ha ka potefoliong ya
173_0582 le ho tlanya typing o
173_0584 tiehiso ya ho phethela dikarolo
173_0586 ya mmofu e kgonya mokgwabong
173_0588 mixed martial arts
173_0590 ditshisinyo di ka kgonahala ha
173_0591 camp david accords
173_0596 e ya hatiswa e saenwe
173_0597 ba qelelwa dinthong ha ba
173_0598 union member economies
173_0599 ya a a nkellang hloohong
173_0600 nthe hee ka ka ka
173_0603 wa thoteng tlhophollo le tlhaloso
173_0609 ho ya ditameneng shu ha
173_0610 a sa kgarumemmakarabelo motsotsong oo
173_0613 ka ho ya moketjaneng ono
173_0614 le ha ho qaqisitswe ka
173_0616 ya tsitsinngwa ke diheshana bomafisa
173_0620 etshweu e lebanta le letsho
173_0623 di ka qhalakanngwa le di
173_0624 ba chikano ya sireletsang le
173_0628 kgele a tsoha a tlola
173_0629 ya emia e na le
173_0631 ho bapiswa le ho a
173_0634 sa le ka madungwadungwa ke
173_0637 ha re ne re ilo
173_0638 le ho phuthollwa ka bo
173_0640 o ne a ikete ho
173_0641 ho batjhana ba ka ba
173_0643 ne a teane le ditshita
173_0644 public international law
173_0645 international criminal court
173_0646 nyamela ho ba ntidi ha
173_0647 hee ke re o nkgitlile
173_0648 mmetla o kgola o e
173_0650 united states coast
173_0652 ya tuma ka ho reketla
173_0653 ne e le e ke
173_0654 dipuo ho phatlalatsa le ho
173_0658 ka dinkgo ho ya sedibeng
173_0659 sa rena le ho rena
173_0661 ho se sireletsehe tshwaetsong ya
173_0662 o na le mosadi le
173_0664 le kwae ke motswako wa
173_0667 ba bangmme se kaba le
173_0668 eo ho bafuputsi ba ikgethileng
173_0670 o ne a mo susumelletsa
173_0674 ho ba le dvt ba
173_0675 o shobile a o entsemotloutlwana
173_0677 ka hodimo ha ho tshwauwa
173_0679 di ne di sa mo
173_0680 sekgutshwane sa akha onte ya
173_0681 boitjaro ho tshepahala ha botsamaisi
173_0682 ke ne ke sa mmone
173_0683 se makatsang ke ho re
173_0685 ke la dipoding o ne
173_0686 le kgelohang tokelong ya bohato
173_0687 e pakuweng ho otsjet ejiwe
173_0688 o itahlele ka setotswana ka
173_0690 central african republic
173_0691 le ha e ka ba
174_0001 o be o tiise o
174_0005 guru granth sahib
174_0007 ha o re o tshwenngwa
174_0008 ho di ja o mo
174_0010 ka dimpa a be a
174_0020 a ka be a le
174_0025 utlwe le ka mohla o
174_0033 o sale o ponne sa
174_0034 a tauli e omang le
174_0039 ha a ne a le
174_0040 e na le matla a
174_0043 a se ke a kgathalla
174_0045 le ho butswa ke a
174_0046 re ke ke ra o
174_0073 di ye ho ya ka
174_0078 botjheng ba ka ke ne
174_0079 e ha ella ng ya
174_0080 e le ho ipeha ka
174_0082 a ke ke a phela
174_0085 e thakgoha ke ha ho
174_0089 ha ho eketswa metheong e
174_0111 o ne o mo sotla
174_0115 o na le mohono o
174_0118 ke ha le se le
174_0120 ho alashwa e sa le
174_0122 e tshopodi e le ka
174_0125 ho na le e le
174_0132 tuba ha eo a se
174_0136 re o a mo qoqisa
174_0139 wa ka ba a tsheha
174_0143 na o ne a qetele
174_0147 le kaalo o ne a
174_0154 ba na le tb e
174_0160 o be o sa ka
174_0165 ho re e ka mo
174_0167 e sa kgeseng le ka
174_0174 le ha di ne di
174_0175 ya b sc b sc
174_0176 a se a re ho
174_0180 ha ho na sera sa
174_0181 be e se e putlama
174_0196 world wide web
174_0197 o se ke wa re
174_0199 ha ke re ke ne
174_0203 prudence e ne e le
174_0204 o ka be o di
174_0206 ka bo a e i
174_0208 ho ba ba nyale ba
174_0212 ha o se a lebane
174_0214 e se e le la
174_0216 ya ho ja o ka
174_0219 e re a ke ke
174_0221 qhe qhe qhe qhe qhe
174_0222 ba sotle ha o ka
174_0226 na ho sa na le
174_0231 ke ne ke tlile ho
174_0232 post world war
174_0233 k ha o na ho
174_0235 nuclear test ban
174_0237 ha ke na taba le
174_0242 o se ke wa thetswa
174_0243 cold war leaders
174_0252 ke ne ke sa re
174_0258 hei hei o se ke
174_0260 le ha ho na le
174_0266 o ne a sa bone
174_0267 le ha e le dife
174_0269 le ha e ne e
174_0275 e sa le a tswalwa
174_0280 o ne a ba opisa
174_0281 ba se ke ba o
174_0282 o tekong e le ho
174_0284 o re ee na o
174_0285 ya harare eo a e
174_0290 o re le ne le
174_0293 o ne o na le
174_0295 o ne a sa le
174_0314 a mo aka ha ba
174_0317 ke ka hoo ke reng
174_0340 o e boleke e le
174_0342 a se a hodile ke
174_0345 le ha ba ne ba
174_0351 e se e ithata ka
174_0352 a ka ho o kgopisa
174_0354 le ka hlompho o o
174_0358 sa le a fula a
174_0360 a ne a le ka
174_0370 re ne re ka ra
174_0372 hip hop music
174_0382 oo le ka o tshepang
174_0383 le se ke la ba
174_0384 ke ya medupe e sa
174_0385 ba ka tshepjwang le ba
174_0386 hot chili peppers
174_0388 e be ho ba le
174_0391 ba neng ba ntse ba
174_0397 o ka nketsang ha e
174_0399 o wa ka ke wa
174_0404 e ne e re e
174_0406 a o ke o mphetele
174_0408 o sa tebang ka ha
174_0414 c le d ka ho
174_0415 a se a tsofetse a
174_0421 e sa le elwa wa
174_0425 e ne e le phatswa
174_0430 ba re ha ba sa
174_0436 ha ke ne ke se
174_0437 swine flu e se ke
174_0441 a dube thankga a be
174_0445 mario kart ds
174_0457 di loke ho ya ka
174_0461 se ke wa ba wa
174_0464 ka ba ba ho se
174_0467 a dti ka manane a
174_0478 e ne e se ya
174_0482 ja ha o na ho
174_0485 ho faswa e bo ba
174_0487 ka ho ya ka kelo
174_0488 se mo sune ha a
174_0500 ha a tsekiswe o a
174_0501 eo e neng e le
174_0502 sa itsebe a be a
174_0503 eo ke e nyatsang ke
174_0508 bo ne bo se bo
174_0513 e re ka ha o
174_0534 le ha o ka ba
174_0540 ha o ka ba le
174_0543 ne a sa rate ho
174_0545 o ke ke wa utlwi
174_0548 a re ha a sa
174_0550 le oo o ngotseng ka
174_0570 nyewe ka ho ya ka
174_0576 ha o ne o se
174_0577 vincent van gogh
174_0581 a ne a se na
174_0582 ha a na ho se
174_0583 ke a mo suna ha
174_0589 o se a thenthetsa a
174_0595 ba ne ba e na
174_0597 o ne a ka ba
174_0599 ke lehlanya a se ke
174_0606 o ka be o sa
174_0607 e ne e se e
174_0610 ye a re ha ho
174_0612 ho se tsube ke e
174_0614 a ne a mo laile
174_0626 o sa ye secunda o
174_0631 mo qwaya a ba a
174_0634 ha o se o bua
174_0645 e ne e le diketo
174_0649 o ne a o etetse
174_0653 ke ke a phela ka
174_0661 ruri e ne e le
174_0667 le pala ha ba se
174_0672 na ha ke re ke
174_0674 e na le ho ja
174_0675 se na mollo ke a
174_0687 o phaphame ha o le
174_0694 o motsumi wa meya ya
174_0695 ya phumantsho ya matlo ya
174_0699 motjodi o tono se sephatswa
174_0701 ke mahodi a patile maeba
174_0702 le ne le hanella mmetsong
174_0703 short story writers
174_0704 ba a ka ba o
174_0707 o imme ya nyarosa kgwapo
174_0708 lifetime achievement award
174_0709 international space station
174_0711 ba ramautla ba re etsisang
174_0716 northern mariana islands
174_0720 saint john river
174_0724 ya ba lai lai thu
174_0725 traditional chinese medicine
174_0728 ha e le a ditsietsi
174_0729 american film directors
174_0730 ya ka e a thulama
174_0731 se ke la ntlhobaetsa ke
174_0732 ba ne ba le pelotelele
174_0733 bo be bo le ka
174_0735 be ho sa ba le
174_0736 o ne a mametse ha
174_0737 re iqeke emoholo esere ra
174_0739 international phonetic alphabet
174_0741 ya boshodu ho tjhwatlwa ha
174_0742 european economic community
174_0744 e otlolohileng le ha e
174_0746 mamela ka tshetshefo ka sepheo
174_0750 le ha ho le jwalo
174_0751 ke re ke se ke
174_0755 re be re tsohe le
174_0756 ke no ebola tapole habedi
174_0757 latetswe le ha e le
174_0758 e re ha mafube a
174_0759 thero le mo kgoqola le
174_0761 kgalemetswe le ha e se
174_0762 nkgwebetha la re ke le
174_0764 tu ha kgahliso a mo
174_0765 a molaotheo a mosebesetsi wa
174_0766 le lehwatatanyana le saballetse ho
174_0767 cognitive behavioral therapy
174_0768 ba buisanang qotsong e ka
174_0769 mmusong wa provense ya freistata
174_0770 ho be le ho senolwa
174_0771 se bo bokeletswe le ho
174_0772 eastern orthodox churches
174_0776 terameng ee o ka re
174_0780 o ne a ye a
174_0782 le phethelo semelo sa baphetwa
174_0785 e metjha ya sekimi ke
174_0786 le ho rutweng titjhere e
174_0788 tjhee ke ne kekopa matlaa
174_0789 bohloko ba seeta bo utluwa
174_0790 ba loketseng ho ka lekolwa
174_0791 a tsamaye le a e
175_0001 la phytosanitary ho nppo ya
175_0002 batantshi ba e hatakela ka
175_0004 nehelanong di sebe disitswe ka
175_0005 dikgaretene mekgabiso ya ka matlung
175_0006 e ka ba sesupo sa
175_0007 le pansalb doe le dpsa
175_0008 ke ka furallalelapa la ha
175_0009 bolokwa khomputareng bakeng sa direkoto
175_0011 re ho se be le
175_0012 sa le tshwantshe le la
175_0013 dumeletsweng medicine price list mpl
175_0014 ho o balla lehla kore
175_0015 le ho kwallwa ha ba
175_0016 le ba angwang le ho
175_0017 mofuta wa potso e telele
175_0018 ho abelana tlotlo ha re
175_0019 ho bata horeo yentle le
175_0020 a di pata matlwaneng a
175_0021 o ne a sa utlwusise
175_0022 qwaile ka ha a ka
175_0023 wa poulelo le wa ho
175_0024 le tshebediso ya matshwao a
175_0025 jwetswa o bonwa ka dikgapha
175_0026 ya dikantoro office administration ka
175_0027 science fiction writer
175_0028 ne ba sa ba ratesise
175_0030 senna o se ke wa
175_0031 o qollehang o ka thehwa
175_0032 adv johnny de lange ke
175_0033 ye ba itokisetse ho ya
175_0034 a ikemetse a ikgannale ho
175_0035 a theohang fora thae le
175_0036 nuclear chain reaction
175_0037 ya kgumamela ka ha ba
175_0038 ka peipi ya kenyomoya e
175_0039 a ditlhabollo tshokollo ha ba
175_0040 new democratic party
175_0041 o qela ka qenehelo le
175_0042 bonkeka ba di tlwaela kapele
175_0043 ba ne ba re o
175_0045 ho akgellwa ie lebollo ka
175_0047 ho be ho petsohe le
175_0049 ngwanaka ka ho ja masooko
175_0050 tsitlallela ho tlisa katleho ya
175_0051 wa batsoeneng eo kadikgomo a
175_0052 nthuse joo hi a kgwatjhoha
175_0053 ho bapatsa le phapanyetsano ya
175_0054 a atileng a tb a
175_0058 ditlamatlama ba ka o phekola
175_0059 la sesole la bothori le
175_0060 ke badimo ba mmontsha leru
175_0061 ho ne ho ka ba
175_0062 israel defense forces
175_0064 league baseball team
175_0066 e atlehileng ho fihlellwa ha
175_0067 ha re hle re di
175_0068 ho na le tlhokeho e
175_0069 ka b o kgoni bo
175_0071 a morafong oo a bea
175_0072 kgonong a mo futse ka
175_0073 hobaneng o ne o sa
175_0076 o mo ja a le
175_0077 a foreshe a bonojana ho
175_0078 sa tswalo le karata ya
175_0079 ba mo foseditsenge ie ha
175_0080 tshwaya ke maikutlo a motshwayi
175_0081 ho ba bangodi babohi le
175_0082 a ntshahlooho ka dikobong a
175_0083 le ho kgannelwa bohatong e
175_0084 boronkhaetisi le nyumonia ho e
175_0085 wa difate o ka nqane
175_0086 ka lefeela la mafeela ke
175_0087 british foreign secretary
175_0088 le re ha le sa
175_0089 ha ba se ba sa
175_0090 khomeshenara wa dikano ke ho
175_0091 le ho thunthetswa ka ho
175_0092 eo a ke keng a
175_0093 le tshibollo e fihletsweng ka
175_0094 kaana o iteta o re
175_0095 ke be ke wele ka
175_0096 sa bookamedi ho na le
175_0097 ho ba le dikri ya
175_0098 california state university
175_0099 qabang ya ka le ba
175_0101 kgotjwa e le maoto mane
175_0106 ya my wellness ya webosaete
175_0107 o ne a tadimane le
175_0110 supileng sehlekehlekeng sa robben ha
175_0111 le ho re fotseke ntjeng
175_0112 ke e ba batsehang o
175_0115 e nngwe le e nngwe
175_0116 internet service providers
175_0117 lethoko o ne a tadimane
175_0119 ne o re direkoto pehelo
175_0120 nakwana e re nengneng a
175_0121 ha metjhini e se e
175_0122 dibeso le dikhemikale le ho
175_0123 wa monahano daekramo tjhate e
175_0125 ho na le bosara bo
175_0128 president barack obama
175_0129 e tebileng ya phetolelo dipuong
175_0130 ya laesense ya ho kganna
175_0131 ke sefeng se re tlisetsang
175_0134 ba ho se be le
175_0135 nehela ka sampole botlolong e
175_0136 e ke ke ya itshetlela
175_0137 ho kgwathwa ha konopo ya
175_0138 e balletsweng e le e
175_0139 states armed forces
175_0140 jwaletjena o ne a se
175_0143 amohetsweng le ho ya ka
175_0144 tlokoma ha ke ne ke
175_0145 a hlokahetse ho ya tlatlapa
175_0146 topological space
175_0147 o ye a re ngwanamahana
175_0149 o se a re ptjangptjang
175_0150 otto von bismarck
175_0151 ne a re sejana se
175_0152 le barwetsana ba a ba
175_0154 ho qhekanyetsa wa mphato ka
175_0156 ne ke sa mmone le
175_0157 ba nkela motjhesi koloi ya
175_0158 le molatswana o phallang lesodi
175_0159 ka be o di sebeditse
175_0160 ha ho bapiswa le ho
175_0161 le ne le le lekgubedu
175_0163 application programming interface
175_0164 ho ya ka kutlwusiso ya
175_0165 lata moya hole o a
175_0166 soviet socialist republics
175_0167 se kgwatha senare sa katara
175_0168 mohopolo o hlahisitsweng moleng o
175_0169 o qakile ke ha ke
175_0170 e qaqisitsweng sehlomathisong sa a
175_0171 le ya metjhining e betlang
175_0172 di bapisa ie ho di
175_0173 captain james cook
175_0174 semomotela pabala twadi e padileng
175_0175 ho be le tsamaisano le
175_0177 eo ke e palamang ka
175_0178 re ka ha ditifikeiti di
175_0179 o ke ke wa kotjwa
175_0181 ditonele dikwari le ho ripitlwa
175_0182 pheha o bohale le ho
175_0183 ke mo tshabang ho nkgisetsana
175_0184 single transferable vote
175_0185 mo rekela motjhini o rokang
175_0186 ya dumelletsweng wa tlhakiso diofising
175_0188 e se e le morwetsanyana
175_0189 o ne o se o
175_0190 baithuti ba mophato o mahareng
175_0191 internal combustion engine
175_0193 e le baneng le ditsamaiso
175_0194 le lera la lefufuru lefufuru
175_0195 ho lebeletswe ho ya ka
175_0196 ke kantoro ya bongodi ka
175_0197 wa kgodiso eo ntataemafikeng a
175_0199 e kgonahalang le e ntshetsang
175_0200 ba mohlomphehi seeiso mohai slp
175_0201 coronary artery disease
175_0203 ha e le bankeng e
175_0204 ha a se a bolaile
175_0205 nuclear weapons program
175_0208 e ne e le modumedi
175_0209 a lohilweng ka therisano le
175_0212 sa ba utullang dipatilweng ho
175_0213 ba di embryo di ova
175_0214 ke toloketswe le ho hlalosetswa
175_0215 mahlaba ha ba mmolella ho
175_0216 re o se a di
175_0217 ba ngodise sehlopheng sa bolo
175_0218 le se ke la nkella
175_0219 le ka la re arohanyang
175_0220 sa itekanelang ba tsofetseng le
175_0221 ho ka ba jwang ha
175_0222 ha e sa le yo
175_0223 church turing thesis
175_0224 asian financial crisis
175_0225 dibanka mabenkele a mabenyane dikgwebo
175_0226 studio le setsha sa transmishene
175_0227 di se di le mothating
175_0228 a se tlohellwe a ntshe
175_0229 ba sa ngodisang ha ba
175_0230 ntshetsopele ya molao wa motheo
175_0231 o mogn oo ba o
175_0232 soviet red army
175_0236 la re ke le nyaye
175_0238 re ke mo hloile hampe
175_0239 wa dulela ho rabaka tje
175_0240 he e ye e mmalehele
175_0241 berne convention berne convention ke
175_0242 le meho polo ho lekaneng
175_0243 metal gear solid
175_0244 se sa lekanngwang se ke
175_0246 ba matshwele a baqobelli ba
175_0247 ke thabele manyofonyo ao o
175_0248 ho ba o ba nehe
175_0249 ya deedsweb ka ha ho
175_0250 ke sehwa ke letswalo ha
175_0252 ho tliswa ke tshebedisanommoho e
175_0253 le lefatsheng la komello mahwatateng
175_0254 kope ho o fa setifikeiti
175_0255 north west company
175_0257 mosuwehlooho a ne a mema
175_0259 british armed forces
175_0260 e le bahlodi e le
175_0263 ba di faetseng makgistrata a
175_0264 hlomamisa dikomiti ho ya ka
175_0268 le ho ja re sa
175_0270 se a thusana se arolelana
175_0271 e phethahatswe le c nkela
175_0273 ne di sa susumeletswa ke
175_0274 ka mawala a hokahantsweng a
175_0275 a be a hatise pasa
175_0276 sa lepoqo ha se kgutse
175_0277 o atlehe e le ka
175_0278 ne a ye a sadise
175_0279 se a retlile moletsane ka
175_0281 ba di je ba ke
175_0282 ha a sa batlane le
175_0284 ba tsheletseng ba thontshweng ke
175_0286 ne a sa itlwe ka
175_0288 re o kgopo le ho
175_0290 bonwang le ho ya ka
175_0291 ho ya ka merabe moetlo
175_0292 wa bodumedi gospel o sa
175_0293 established diplomatic relations
175_0294 e ka hirisetsa khamphani ya
175_0295 le phumantso e ntlafetseng ya
175_0299 ho ekets boikgathatso ba ho
175_0300 le ho nkelwa dikoloi ha
175_0301 o ntshofaditsweng a na le
175_0302 ho buuwang ka yna e
175_0303 sa khiro se saennweng ke
175_0304 o di tsebise ka kopano
175_0306 sekete ya thelevishene e kwalehileng
175_0307 hangata ka ho nepahala le
175_0308 thesela mmadikotwana eo malekupa a
175_0309 a ba a ba a
175_0312 le mane ho na le
175_0313 o e tlamella lekaleng o
175_0314 economic cooperation apec
175_0315 oriental orthodox churches
175_0316 ho ewp e be ba
175_0317 le ditswejane ho le mathisa
175_0318 mmutlanyana o ne a le
175_0321 ha molwantsi a ne a
175_0325 eo ka menahano e tiileng
175_0326 mafosi o be o tshehetse
175_0327 dingaka di be di phethile
175_0328 kotulo eo ba e behetsweng
175_0329 phousetara e shebehe e le
175_0330 di se di kgethilwe di
175_0331 dikobo le ho mo busetsa
175_0332 he ha e le mo
175_0333 human development index
175_0334 pope benedict
175_0335 tharo a b le c
175_0336 taba ya ho fana ka
175_0337 ao o sitwang ho a
175_0340 ba na le mamello mamello
175_0342 ya lokileng ho ya sa
175_0343 pusat statistik provisionally
175_0344 setereka sa maseterata wa pretoria
175_0345 ho a ka ba le
175_0348 e ne e le sephankgahadi
175_0349 ka ho re ho na
175_0351 ya tswalehileng ya hotseng abokotswa
175_0353 wa di raha e sa
175_0354 o so ka o fetolelwa
175_0355 north atlantic ocean
175_0357 di re ke sonasesosa sa
175_0358 final resting place
175_0359 ba ke re o nkgumamele
175_0360 a le d e le
175_0362 current account deficit
175_0363 le ntatemoholo mmamaema le ramaema
175_0364 diteboho ho metswalle le bomphato
175_0365 tsepamisa maikutlo haholo mopeletong le
175_0369 bomenemene le ho hokahana ka
175_0370 ka beile le ya ho
175_0371 ba dikgotswana ba se ba
175_0372 o ke ke wa ba
175_0373 o lahla dithatho e be
175_0374 ke ke ya ba le
175_0375 matjhabeng e ye e be
175_0376 tsejweng ka kgalaseng eo motaung
175_0377 e theohang panama o inyanyaditse
175_0380 nyaya la koloba ditletlebo di
175_0381 ha e le ka sekotwana
175_0382 ne a mo phedisa ka
175_0383 lkhansele ya aforikaborwa ya diporofeshene
175_0384 peo eo a e jetseng
175_0385 eo o e kopileng o
175_0386 ha e le kajeno lena
175_0387 weso na o se o
175_0388 fihle matsohong a eo le
175_0389 soviet socialist republic
175_0390 e le wa dijareteng difemengkwana
175_0391 wa boitekolo ho hlahlobisa le
175_0392 ha o sa itlhokomele o
175_0393 a radieishene yuraniamo le thoriamo
175_0395 ba ne ba thabisitswe ke
175_0396 ya ka ngodiswang e le
175_0397 ho itshepa le ho ba
175_0399 a ka bapiswang le a
175_0400 dumellang baabi ba batjha ba
175_0401 ne ke se na boikgethelo
175_0403 mmadimpho siko ke re ho
175_0404 fumanehang sebakeng se bapatswang di
175_0405 kganahatswa ke boitelo le ho
175_0407 a o hlwang setha o
175_0408 zermelo fraenkel set
175_0409 ya boiphediso eo ho ka
175_0410 ha re di bolellwe re
175_0411 sa ngodisang ha ba a
175_0412 e ahang e buang ka
175_0413 ba e tjhaelwe monwang ke
175_0414 ke ya tefello e tobileng
175_0416 o ne a se jala
175_0417 ye di tlaleheng ho ya
175_0418 ba marena a engelane ditsebengho
175_0419 ho phethahala ho ya ka
175_0420 e le matahwa a mahlena
175_0423 le ho se tshwane ho
175_0424 ne e na le ditempe
175_0425 e bapetsweng ke moporesidente wa
175_0426 ya ka sehloohong wa phethahatso
175_0427 moso ke se iphumane ke
175_0428 mohau a nanabela lebokoso le
175_0429 la nkenya ditabeng bana ba
175_0430 eo ba ka e abelwang
175_0431 mmakarabelo o ne a tobane
175_0432 condensed matter physics
175_0433 leba mophatong le ho bolotswa
175_0434 ha esale ke tswalwa ke
175_0436 le dibohodi di kgothaletswa ho
175_0439 o se o lahlehelwa ke
175_0440 ba tshwasehe kutlwisisong e mopatisane
175_0441 be o itatola bosehla ha
175_0445 khamphaneng ya marematlou holdings ba
175_0446 a se ke a ho
175_0448 early middle ages
175_0449 o se a mo qalletse
175_0450 o ka itahlelang lemeneng la
175_0451 d ho ikopanya le difedereishene
175_0452 ne ba itjella bolokwe ba
175_0454 demokerasing e kgonang ho ipeha
175_0456 eo o se o e
175_0457 a re o mo ja
175_0459 ha ba qhekelle ha ba
175_0460 ke ha ba nwabeleditse ba
175_0461 mokgutshwanyane o mo tsalang disanthao
175_0462 provenseng eo ha ho se
175_0463 e le le etelletseng tlhaselo
175_0464 moelelo sekaseka le ho hlalosa
175_0465 ha o ka wa mpha
175_0466 na le boikarabelo ba ho
175_0467 states presidential candidates
175_0469 o se a theohile a
175_0470 o e fetolele ho lekgathe
175_0471 tshekatsheko ya hae e paka
175_0473 lofe a ka hlolehang ho
175_0474 paleng ee o ka re
175_0475 sehlahla ke phetho ke tu
175_0476 hard disk drives
175_0479 e le wa semanyamanyane o
175_0480 ho se ho le tjena
175_0481 union member states
175_0482 java virtual machine
175_0483 ho underwriter ho ya ka
175_0486 eo o ka e tsamaisang
175_0487 indian national congress
175_0488 re le ha e le
175_0489 seo ke lekang ho se
175_0490 e tswalang ho foforeha ha
175_0491 le lekgetho le o phumaneho
175_0493 lebellwa ka ha e ne
175_0494 ke ya ka santhao ke
175_0495 di ka o hapisa moqhaka
175_0496 tjhefu dijong le ha ho
175_0497 ba a ruteha le ka
175_0498 ikemisetse ho reupella le ho
175_0499 re le baetapele re a
175_0500 baromuwa ba ncop ba ka
175_0502 a mamel wa le ho
175_0503 grammy award winners
175_0504 o tle o se ka
175_0506 o be o se o
175_0507 tlhokomeloi ya boalosi lehaeng la
175_0508 ya ka le ka tlasa
175_0509 a itjhebetse mejo lemmethe wa
175_0510 o ne aikemiseditse ho ya
175_0511 loreal age perfect ke ditlolo
175_0512 bukeng ya ac jordan e
175_0513 ya thitelo ha mantshele motaung
175_0515 la peete le ne le
175_0517 efeng ke ha baqolotsi ba
175_0518 ho ba la tahlehelo ya
175_0520 o re ke dikwata dibusenga
175_0521 married couples living
175_0522 ho fokollwa ke boitswaro ho
175_0523 ha ke le mokaana ke
175_0524 eo a se a kgutsitse
175_0525 butswe le ho butswa ke
175_0526 hlokomedisa ka bobe le bokgopo
175_0527 ne e fupere le ho
175_0528 ho re ho be le
175_0529 internal combustion engines
175_0530 menahano ya ka ya farasa
175_0531 national science foundation
175_0532 ebesela a ntjhafale e be
175_0534 ba le nate boltong e
175_0535 ka ho re o se
175_0536 kotlo ya ho kgotha le
175_0537 o tjhele ya phediso ya
175_0538 ya ho theolelwa le ho
175_0539 human rights activists
175_0540 ka masakaneng o be o
175_0541 barata ho nkeletsa ho phahamisetsa
175_0542 seemo se selelele ya raohileng
175_0543 se ke wa tshaba ho
175_0544 moscow state university
175_0545 itjella manna le ikgethela wa
175_0547 e sebedisehang e amahngwa le
175_0548 eo o hlolang o e
175_0549 ho thujwa ho ba dikotwana
175_0551 soma ho mo qosa le
175_0552 sa bosuwehlooho ke se tjhesang
175_0553 a le holena la meutlwa
175_0554 ba leloko le metswalle ho
175_0555 ya mmampholane ya boiphetetso e
175_0556 tsabosetjhaba le ysa profense di
175_0557 e kalo ka r e
175_0558 valence bond theory
175_0559 le lequlwana la dinokwane le
175_0560 poello ha o beeleditse ho
175_0562 ho ya ka dipolotiki basebedisani
175_0563 di e ja e le
175_0565 o hanana le ho re
175_0567 na lepato le ka tswelang
175_0570 e se be eo mmate
175_0571 la ho potlaka ho ka
175_0572 le ha e le se
175_0573 ke bosotho nthwese kola sa
175_0576 e se kgeme le pehelo
175_0577 baobab baobab or adonsonia digitata
175_0579 se e le lesupi ho
175_0580 se bo ikakgetse ka setotswana
175_0583 castel sant angelo
175_0585 beleha le ho adoptha ho
175_0587 la tiiso ka e meile
175_0588 di tshwauwe pampiring eo di
175_0591 ba matriki di se di
175_0592 di kititsa le ha a
175_0593 ho ba moruti wa kereke
175_0594 qolla leakaretsi o be o
175_0596 ya ho ba le dikimi
175_0597 qotsitswe le ho lokiswa ho
175_0598 se qaqolohane ha se a
175_0599 ye a re o ka
175_0604 ka ho tsuba boikwetliso le
175_0605 ho hlahloba le ho ntjhafatsa
175_0606 ho ba le phihlelo ya
175_0607 wa se ke wa ba
175_0609 ba ne na ye ba
175_0611 matleng le mananeong a matlafatso
175_0613 ha e le ho rothisa
175_0614 le se tshohane le re
175_0615 ka ho sisinyeha ho hosesane
175_0617 ha e ba le tlokotsi
175_0618 mohwehadi ha di thabiswe ke
175_0619 le ho tsetela le meruo
175_0620 le diqhwaha le dipudumo ho
175_0621 a sa hlapa ha a
175_0622 ne e opa a nyokgoloha
175_0623 ke advocate le ha ho
175_0624 ha le boulelle sowana ba
175_0625 le ho lwantshana le botlokotsebe
175_0626 e tla be e le
175_0627 le ho bohehang ho sa
175_0630 le he e ye e
175_0631 o re bopileng ke a
175_0632 chicago white sox
175_0633 ka letsholo la ho baballa
175_0634 e kathoko ho tlhopho e
175_0635 a ke ke a tata
175_0636 alwana ya kgumamela ka ha
175_0638 le ho mo qhobella majwe
175_0639 booki di lefelletswe kemosuwehlooho tsholo
175_0640 di na le ditsebo le
175_0641 tatello le karabelo phehella ho
175_0642 di romeletswe ka thelefekse di
175_0643 ke maranran g a fepelang
175_0644 wa ho tokafatsa bo tlokotsebe
175_0645 british overseas territory
175_0646 le dintwa vmme e ne
175_0647 ho hlotjhwa ha ba di
175_0648 bo botlo le bo ka
175_0649 o tswile kotsi e mpe
175_0650 dikgaolo le ho re hlahisetsa
175_0651 largest ethnic group
175_0652 phemiti ya ho kganna ya
175_0653 roud ya wto re kgodisehile
175_0654 motjekong bashemane re ne re
175_0655 di boletseng e sa fokotse
175_0656 ka sekotlong sa phakiso le
175_0657 di anti retroviral le ya
175_0658 kgutle a tulatula moriana oo
175_0659 re e hlaolele re sietswe
175_0660 efatshe wa rakebi selemong se
175_0661 ha se a ralwa ka
175_0662 nkgetheng la kamohelo ya ho
175_0663 ha ho na ho ba
175_0665 se ne se hlabehile habohloko
175_0667 le bonase ya kheshe eo
175_0668 se e le ho ka
175_0669 lelapeng ho ka ba le
175_0671 ka ha o se o
175_0672 oo ho ne ho le
175_0673 badan pusat statistik
175_0674 ha se etsahale ka ho
175_0675 di sa fohlwa o a
175_0676 ho ya mo nkisa mokotla
175_0678 re phahamisitswe ke ho kgwathwa
175_0679 ke re ho ya ka
175_0680 o itshebeletsa ho ya ka
175_0682 ha o se o ngodisitse
175_0683 le be le mo dikelle
175_0684 kgothaletso ya boikgwantlello le ho
175_0685 ke ba arolelanametsi a yonale
175_0686 dijonyana snacks a tsholwa ka
175_0687 ho na le letamo le
175_0688 ho ya ka mosebettsi wa
175_0689 le dikokonyana di na le
175_0690 di le matlapa di thella
175_0691 screen actors guild
175_0694 ke ngongorehe ka ha ke
175_0695 ludwig von mises
175_0696 ho ja papa ya lephotho
175_0697 o ne a sa suthe
175_0698 mohloki ya kgesehang kgutsana le
175_0699 a le tipatipa ho ya
175_0701 european union le ahile diphaposi
175_0702 wa ho lahlwa ha dikgwerekgwere
175_0703 supreme court ruled
175_0704 le phehiso e tlotlehang malepeng
175_0706 mo hlahetseng mo romelle karete
175_0707 khomishene e ikemetseng ya dikgetho
175_0708 ho se balehe le ha
175_0709 samina o imme ya nyarosa
175_0710 boikutlo ba ho tshepana pakeng
175_0711 ho ba le rejistara e
175_0712 wa boitokisetso le meralo ya
175_0713 bowatla ka ho mo letsetsa
175_0714 eo ha e ka kgaoletswa
175_0715 o ne a kgabelletswe ka
175_0716 ya projekte le kananelong e
175_0717 wa ho hlwekisetsa bommisisi dijarete
175_0718 meloko ya ka moso e
175_0719 mongata e le wa dijareteng
175_0720 ho ya ka makgoro le
175_0721 science fiction convention
175_0722 se tshwasang dihlapi ke sekepe
175_0723 be ba se ba ho
175_0724 d e le f ba
175_0726 ba le pin ya ho
175_0728 onelopele ya tjhata ya ho
175_0729 burundi comoros sudan haolo ho
175_0730 a hamme e tswele le
175_0732 gibbs free energy
175_0733 ne a se a le
175_0734 ha o ya ho e
175_0735 a ne a le bodutunyana
175_0736 ka sms sms benefit lookup
175_0737 ba itokisa ba hlomela ba
175_0740 ba matha ka dinkgo ho
175_0741 late eighteenth century
175_0742 ho re a ye le
175_0744 ba ya phasaphasa e tjhaile
175_0745 o ne a ikane pontsheng
175_0746 madison square garden
175_0747 ho fopha ho sututsa ho
175_0748 ke kalafo e sa fellang
175_0749 se ne se na le
175_0750 ha ke re re le
175_0751 le sa le lelelele ka
175_0752 e yeng e be ya
175_0753 ho re moreneng ho hlahile
175_0754 a qela holeoto o ne
175_0755 na le tokelo ya ho
175_0756 basebetsimmohomemorantamo ka tlhokomediso ya ho
175_0757 saenneng wili ya sethato ha
175_0758 ka ke ne ke le
175_0759 ka ho lemala o le
175_0760 tlamehang ho ho ya ka
175_0761 dikoporasi a ke ke a
175_0762 ha ke e hloke le
175_0763 bokgotsing ba ke ke ba
175_0766 ha o na thaere eo
175_0768 le ho phutho llwa ka
175_0769 e lwanela ho ya ho
175_0770 hela ke itlamela ke le
175_0771 english civil war
175_0772 ka ikela masihlwane o nea
175_0773 a ne a sa fihlelwe
175_0776 sedulwamatswapong ha ho le hobe
175_0777 civil class
175_0779 ha mofammere a mo eletsa
175_0781 ke basebeletsi matloleng a dibenefiti
175_0782 leru le lefubedu t w
175_0783 chief executive officer
175_0785 a bo hlothile e ya
175_0786 wa kabo ya mangolo nqf
175_0787 le hamohlomong o ne o
175_0788 e mehlano ya dilotho ho
175_0789 seturupu se se kgubedu botlolwana
175_0790 e tlatsitswe ka ho phetahala
175_0791 bane ba hlahelletseng ka mahetla
175_0792 se mo ise yunivesithing o
175_0794 australian air force
175_0795 western roman empire
175_0796 o re ho a be
175_0797 phatladitse masedinyaneng dithelevishineng le dibukaneng
175_0798 e ke ke ya eba
175_0800 ha o sa se medisa
175_0801 ka ikutlwa ke tlalwa ke
175_0802 e itlhalosa e qadilwe ke
175_0807 na le manyofonyofo a swabisang
175_0808 ho ya ka kutlwisiso ya
175_0809 poho ya mokgerane e ka
175_0811 cite press release
175_0812 best supporting actor
175_0814 ho ya ka baamohedi ba
175_0815 ya cbnrm e fapane le
175_0816 e ne e re e
175_0817 ka ha e a kgotsosofala
175_0818 a o ke o mphetele
175_0819 ho tsoseletsa selekane se setjha
175_0821 maqwetha diadvokheiti diakhaontente le bahlakisi
175_0822 a se kgwatha senare sa
175_0824 ho ya ka bokgeleke le
175_0825 a le monyebe ho ka
175_0828 paseditseng botitjhere le kereiti eo
175_0831 bo rarolohe bo rarana le
175_0832 ha a tshwanelwa ke ho
175_0833 e sa le elwa wa
175_0834 ne a sa ratelereko o
175_0835 a re mofifi ke saletswe
175_0836 mines occupational diseases database samodd
175_0837 e ne e le phatswa
175_0838 di radileng ho ke ke
175_0839 ha di se di tshwailwe
175_0840 maholwanyane e be a kolokiswa
175_0842 ba re ha ba sa
175_0843 best adapted screenplay
175_0844 poho ya mmofu e kgonya
175_0846 ha se monwana ha le
175_0847 kansas city royals
175_0848 ha ke ne ke se
175_0849 swine flu e se ke
175_0850 molatswana o phallang lesodi o
175_0851 a ka e fetisetsang ho
175_0852 e le mampodi wa teransefala
175_0853 a dube thankga a be
175_0855 amo kodisa a be a
175_0856 ho tswa thothokisong e botsi
175_0857 mario kart ds
175_0859 republican party united
175_0860 sa lakesense ya kgaso ya
175_0861 dithena di iketlile di ja
175_0862 ke kgaohana a ko iphe
175_0863 ha a reteleha a re
175_0864 le thope e tshehlana eo
175_0865 ha ho sa kgonwe ho
175_0866 bo naka di maripa ka
175_0867 le ha ho lejwalo mekgwaena
175_0868 le ntjhotjho ke ba sebetsanang
175_0869 di loke ho ya ka
175_0870 bo botle le polokeho merafong
175_0871 ba ne ba mo kgalemelletse
175_0872 ho ikitlaetsa le ho ba
175_0874 entered world war
175_0875 national historic persons
175_0877 e sa ntsane e tswela
175_0878 la tswekere le mahloko a
175_0880 share capital di tiisetswe ke
175_0881 ao a ka tobanang le
175_0882 le tsepameng nlheng ya ponelopele
175_0883 eo se e thonyeditsweng e
175_0885 ho ikahela boitsebelo ba rarolle
175_0886 ha ho se ho senyehile
175_0887 le motsekiswa ha ba ya
175_0888 lehokaleamanyi e e le lehokalekgethi
175_0891 ne ho hlakile ho re
175_0892 institjhuteng dikhampaning dikoporasing le baleming
175_0893 states postal service
175_0894 ja ha o na ho
175_0896 ho tlisa phetoho le ho
175_0898 kofi peparemente le tjhokolete di
175_0900 se mo sune ha a
175_0902 a betilwe a bolailwe a
175_0903 a kgannang bahwebi ba rekisang
175_0904 ka sereledi a phoqeha ha
175_0905 saenetswe ke baamehi ba konterakeng
175_0908 ba se etsahang ha se
175_0909 mo kgwatshebetso wa ho to
175_0910 ka seamohedi sa tshisinyeho ya
175_0911 ho kgonahalang ho hlalositswe ka
175_0914 ha di se di oroha
175_0915 mapolanka e sa blelwang kaekae
175_0916 ya health risk manager ka
175_0918 oo ka ha ka le
175_0919 o ne a nqoba ka
175_0920 mokgopi o qhalana raditaba le
175_0922 ke ka tatela boqheku ke
175_0924 high blood pressure
175_0925 ha ke re jwale ke
175_0926 kgama a arohane ie dibakiso
175_0927 ya mofu ya kabo ya
175_0928 ke e kgahlisang e kgolwehang
175_0929 halefa ha monna a mo
175_0930 a haedi ne di le
175_0933 ka ngollano le yunivesithi ya
175_0934 monaco grand prix
175_0935 e be o na le
175_0936 ya bolebedi ha le apare
175_0938 ntshosa ke ne ke le
176_0001 kansas city royals
176_0003 swine flu e se ke
176_0006 e le mampodi wa teransefala
176_0007 a dube thankga a be
176_0010 ho tswa thothokisong e botsi
176_0011 mario kart ds
176_0014 sa lakesense ya kgaso ya
176_0015 dithena di iketlile di ja
176_0018 le thope e tshehlana eo
176_0019 ha ho sa kgonwe ho
176_0022 le ntjhotjho ke ba sebetsanang
176_0029 national historic persons
176_0034 share capital di tiisetswe ke
176_0038 ho ba yuropa le bophirimela
176_0043 eu member states
176_0046 institjhuteng dikhampaning dikoporasing le baleming
176_0047 states postal service
176_0048 ja ha o na ho
176_0052 kofi peparemente le tjhokolete di
176_0070 supply chain management
176_0071 american military personnel
176_0073 te maak is nie kinder
176_0075 a qholotsang a na le
176_0076 ba e ola ka sekotlolo
176_0080 ke re o nkgitlile dibete
176_0081 hlanohetswe o hlanohetswe le ke
176_0084 tjhankaneng ke ha molebedi a
176_0093 e ka qetellang e mo
176_0097 james clerk maxwell
176_0101 initiative on priority skills acquisition
176_0102 ba lekalala fet re tshepahore
176_0105 bilateral immunity agreement
176_0108 le le dikelang ha o
176_0111 o ke ke wa utlwi
176_0117 e lebiswe ho mohiriwa mokodi
176_0119 ya betlileng ya pentileng ya
176_0123 hubble space telescope
176_0125 birth missing living
176_0127 di bakuwe ke ho se
176_0128 ka phethahalo le ka ho
176_0138 e apereng letlalo la nku
176_0140 ha ho buuwe ka ho
176_0143 vincent van gogh
176_0144 ka neville gawula a ho
176_0152 takadimane ba ba ba nkana
176_0153 sele le bohweng ba ntja
176_0154 emte se fpsajetsemg se emg
176_0155 o se a thenthetsa a
176_0162 le di trade unions ho
176_0179 o sirelletsa o wa ka
176_0182 b c d mohwanto wa
176_0184 gnu general public
176_0185 walt disney company
176_0187 population division year
176_0189 domestic product gdp
176_0192 le sa tshelweng ke nta
176_0193 ya ka pilir o ka
176_0196 ba ithabetse ba ipinela dipina
176_0199 wa ka ke qati o
176_0203 o se ke wa hlophisa
176_0211 ne e le modumedi wa
176_0212 eastern catholic churches
176_0213 ra ikotla difuba ka ho
176_0215 ha o se o jele
176_0216 e ke ke ya sebeletsafela
176_0217 e le papadi e tswileng
176_0219 o ne a se a
176_0220 ntshetse dikgoho a mo phehele
176_0221 e sa le dinyane papisong
176_0222 ka kgeleke ya seqapi lefaufau
176_0223 a phatlalatse le ho qhalanya
176_0224 e se e fetela ho
176_0225 o mo hlale o inyalle
176_0226 batsetedi basibolli le bareki le
176_0231 c presidente a ka qhala
176_0232 a ne a se a
176_0233 leloko le lefang tonobankeng ho
176_0240 a mo immeng ke ngwanamadi
176_0242 ho hasanya le ho qhalanya
176_0246 ku klux klan
176_0247 tseleng ebileng e se na
176_0259 le moprimiri wa provinsi e
176_0265 e ne e ye e
176_0268 mananyetsa a se a lefuwe
176_0271 ke se rometse ha maotwanafinyella
176_0272 central business district
176_0273 o re ditlhware di tshwareha
176_0274 diradiong le dithelevisheneng ho ne
176_0276 ho arabela kgoeletso ya ho
176_0277 qhii a ba a inamisa
176_0278 united methodist church
176_0280 tlakasela a fehelwa a re
176_0281 wa sa management development intitution
176_0283 e se e nyeunya diboko
176_0289 koppen climate classification
176_0295 ke ba dumelahore e nkuwe
176_0296 ding ho na le phetapheto
176_0297 ba ha ke sa le
176_0302 kgudu ke sethoto le semumu
176_0307 o hanelle ka dikobong ho
176_0311 tshiveda sendebele le siswati di
176_0316 ha ba hatelle le ho
176_0319 ha ke no tswafa ho
176_0322 monka ka bethe eo a
176_0326 e re ka ha ho
176_0331 nations high commissioner
176_0338 average annual rainfall
176_0341 dikonsarete ho ne ho se
176_0345 native american tribes
176_0347 le mokopi eo ha ho
176_0348 leqheku ho tsofala le ratang
176_0350 o re na modimo o
176_0353 south african government
176_0355 yellowstone national park
176_0356 ya tshitwe le ne le
176_0357 be le social worker ya
176_0360 tswelopele ba re a dumellwe
176_0366 ya mahlaku ho ya ho
176_0369 lesira le le pudutswana la
176_0372 le ho lekolwa ha ho
176_0373 sebo peho ka b o
176_0376 ke ke sa o putsa
176_0378 ya o a se kgitla
176_0379 o sokolotswe le ha ho
176_0380 ba ikgantsha le ho ba
176_0386 main sequence stars
176_0393 united states armed
176_0395 test ban treaty
176_0396 sereledi a phoqeha ha a
176_0397 hloohongabaa re sihla a mo
176_0405 ho kgohlela ho sa feleng
176_0408 a re ke mehlehlo ya
176_0411 articles containing proofs
176_0413 di botse e ya kae
176_0415 o sa ye ngakeng o
176_0421 mothendari a ka phumola ho
176_0422 e le ho utulla le
176_0423 a absa fnb nedbank a
176_0427 ho ntjwetsa dife na jwale
176_0429 nkgolwe ha ke re ke
176_0432 le boyeneng a hlaheletse ka
176_0434 le tikoloho eo ba phelang
176_0437 ho fetisetswa ha tehpa e
176_0438 ke kodua ya masetladibete ee
176_0440 ke lehe ha o rwale
176_0445 ho ya ka moenjenere ya
176_0447 susumeditse borakgwebo ho bula dimmotjhara
176_0448 o foseditseng ha ho ka
176_0456 million metric tons
176_0457 e laeleditsweng e se e
176_0459 le le ka marung ke
176_0461 fala lekoko la pholo eo
176_0463 hella nehelanong di sebe disitswe
176_0464 ya ac jordan e bitswang
176_0466 se e totile o ne
176_0467 e mong le e mong
176_0471 million years old
176_0472 morenengha ho etellwa morenapele mohlomongha
176_0473 ho ke ke h a
176_0475 le ho epolla bokahodimo bo
176_0477 le ha boraditaba masedinyana dithelebishene
176_0479 motjhine o ne o se
176_0482 la monnae lebaqolotsi o ne
176_0483 ho kenela dikonteraka ho ka
176_0487 horizontal gene transfer
176_0493 mario kart
176_0494 dikeledi ha ke re ke
176_0495 ho rora ha helikopotara e
176_0499 ne e kenyelleditswe ho ba
176_0504 e ne e se ho
176_0505 formal diplomatic relations
176_0506 carnegie mellon university
176_0507 e a behelwa ho o
176_0510 le lesoba le lenyenyane ka
176_0514 ba bamemuwa makhing wa bahlomphehi
176_0515 se kgethollang makasineng se bolele
177_0003 fact date february
177_0004 seqhenqha sa moshemane a le
177_0005 grammy lifetime achievement
177_0006 lekanang mahlakoreng a mabedi a
177_0007 ya ho rutela ha a
177_0008 educational institutions established
177_0009 foreign direct investment
177_0010 o fellwe ke bosotho nthwese
177_0022 hlokomela le ho kgetha dintho
177_0028 ke sector education training authority
177_0029 e ie ya tshiyamo ie
177_0030 ka fekese ha ho se
177_0031 ya batshwaredi board of trustees
177_0034 se le fiela ka dintshi
177_0037 ho na le tshisinyo ya
177_0039 le khoutu ya setheo khoutu
177_0040 botleba mookodi ha lefafatsanele qetaho
177_0041 ho boitokisetso ho ya ho
177_0042 quantum field theory
177_0046 temg tpp amemg bpmmete ba
177_0047 ba ke ke ba ho
177_0048 ntano mo tjhentjhela dikobo le
177_0049 o hlomolang hakaale eo ho
177_0052 tswele ka ntlo ba yo
177_0054 e fuputswa ho na ho
177_0056 le bohole e be ho
177_0057 ancient near east
177_0062 khalkhuleita e behilwe e le
177_0063 ba ka ha re majalefa
177_0064 botlolo ya boranti le ho
177_0068 mo re he a ba
177_0070 mo kgothatsa ka ho mo
177_0077 ya kheshe eo ho fanwang
177_0079 eo o ka fetisetswang ho
177_0080 ho e hlatswa le ho
177_0083 ho lekanya boleng ba ho
177_0086 ha e ka ha ho
177_0090 metlae yabatho ba ekang ba
177_0092 e le mmolai ho ka
177_0094 ho ke ke ha tellwa
177_0097 national film registry
177_0098 tlameho ya boramosebetsi ya ho
177_0099 barui ka ha e ba
177_0103 ba a phema ba ye
177_0104 leboha kgutlana la ka ramasedi
177_0106 johns hopkins university
177_0107 baphetwa baa ba ne ba
177_0109 taolo ya mehlodi ya tlhaho
177_0110 rock music groups
177_0118 ho le dintwa vmme e
177_0121 ho tlwaetsa le ho rupela
177_0122 a ke o qoqe ka
177_0123 ho hlekelwa sebae ka ho
177_0124 bapile ba ntshana se inong
177_0127 academy award winners
177_0133 ke ha bohlokw a ho
177_0134 moshanyana ha di jewe paleng
177_0135 ne e le la ho
177_0137 internet protocol suite
177_0139 golden globe winners
177_0140 monetary fund imf
177_0141 se netefatswa ke maele a
177_0145 uk singles chart
177_0146 king charles
177_0148 o potapotileng ha ba sa
177_0149 he ha re phahamiseng ke
177_0150 radiphaphatha a mo re qhau
177_0151 atlantic treaty organization
177_0153 bo oonaempa a tsamaellanang le
177_0155 a hlomamisa dikomiti ho ya
177_0157 e khutshwanyanehokarolo ya b o
177_0160 ene e le ho sireletswa
177_0163 ka ha re ne re
177_0164 current prime minister
177_0166 futsitse lebitsola haehobanee nee le
177_0167 clean air act
177_0173 united states marine
177_0174 so ye le hojana a
177_0175 a di fe tlelereke ya
177_0179 o ho tshositse ka ho
177_0184 king james bible
177_0189 services hokenyelletswa le ba beileng
177_0195 ya ateraetisi ho na le
177_0198 hadikelang ho di ja o
177_0200 dead sea scrolls
177_0207 le bahokahanyi mohatong wa porofense
177_0208 e ne e le satertaha
177_0210 a ke ke a o
177_0213 idp di idp di na
177_0214 e itshetlehileng thothokisong e hlahisitsweng
177_0219 a betsetsa leboya o hlollwa
177_0222 moporesidente wa mehleng wa anc
177_0223 advocate le ha ho le
177_0227 o tlisitse ho tella kwano
177_0239 o lemao le ntlhapedi o
177_0240 cite book title
177_0241 tokoloho eo a e labalabelang
177_0243 ka e amohetswe ho sasa
177_0244 ya setatemente sa kharikhulamo ya
177_0258 wa ditlhophiso le ha e
177_0259 emmy award winners
177_0261 ho thehwa ha makala a
177_0262 a masweu a pholiesetere a
177_0264 mabitsoao o be o a
177_0266 le ho nyefola se sa
177_0268 a re o batlile a
177_0269 se ke wa latella ho
177_0271 apere nkwe ha e le
177_0272 sa busetswang madulong eo ho
177_0275 provider dsp medipost ha o
177_0277 sir arthur conan
177_0279 rarolohe bo rarana le ho
177_0283 ka nepahalo le ka ho
177_0287 ne a le unibesiting o
177_0288 national wildlife refuge
177_0290 ho tsohwaka matjekemme ho uwemotseng
177_0297 ba le tshenyo e bakwang
177_0300 ke ke a mamella ho
177_0303 ne ba hlohlelletswa ke boralehlatsa
177_0304 mahala e ka thabelwang ke
177_0306 a nkga a re phu
177_0307 iphoqa o ithetsa ka tsiemokopu
177_0309 ya learnership le ha ho
177_0311 bo se bo ikakgetse ka
177_0312 ka judase ha a ne
177_0314 be ka mabokose a masweu
177_0317 matlonga r d p ho
177_0320 tlabidika a thwene a tsamaye
177_0321 ha di a re tsamaela
177_0322 mehananeng hararo ya ho ka
177_0326 rona wa ho keteka lemo
177_0329 ha di hlahisitswe ho tj
177_0330 ya mareo le mererong ya
177_0334 e se e re putla
177_0335 specialist haebaosafetisetswaho specialist kengakayahao ponoyangakaya
177_0336 seipati o ne a sa
177_0338 le ho ja ho le
177_0340 a itherolotseng a re o
177_0341 indian prime minister
177_0343 o tiang ho tshwarelwa ho
177_0345 a utlwahala e kgutshwane le
177_0346 ho ka kgonehang ka teng
177_0347 ka ditjhipse ho e na
177_0348 ba le dvt ba ka
177_0349 nlbs ha e a botjwa
177_0352 o voutelwa ho ba ditulong
177_0354 hlotse mmampholwane ha a ne
177_0358 le ho kgemiswa le dinako
177_0362 mo ho jewang hlenhlenyane ho
177_0367 na le kgalala e itlhommeng
177_0368 d honneur recipients
177_0374 transitional federal government
177_0383 bo itseng ba ho akaretsa
177_0386 ba h itaola ha ba
177_0388 a dikgoka le ho kwena
177_0389 ha se a phutholoha ho
177_0394 eo ke sa e tsebeng
177_0397 ao ho ikemiseditsweng ho a
177_0398 ba ka ke tjho le
177_0399 busetswang madulong eo ho tjhona
177_0400 early twentieth centuries
177_0405 ke ya ba mothusi wa
177_0406 ka rarolleha a ke o
177_0408 ho se ho mekamekanwe le
177_0409 nyumonia ho e na le
177_0411 e ngolwe ka maleme a
177_0412 ho kgahlanyetsa masopha le sekgonyana
177_0415 lefadikoloto ba reke dijole ho
177_0418 le ha e le ka
177_0420 kgathatse o ikgothatsa ka ho
177_0422 ne e re e le
177_0425 grand theft auto
177_0428 video music awards
177_0437 ba ha e be ke
177_0438 e phethahatswe ke mebuso ya
177_0439 fumanwe ka ho se tshepahale
177_0440 dikuku dibiskiti teye le kofi
177_0443 universal adult suffrage
177_0444 axiomatic set theory
177_0445 wa ntsubisa seneifi ke a
177_0448 uefa champions league
177_0452 international security assistance
177_0453 la ho ntshuwa ha batshwaruwa
177_0457 wa ngwana ya tswetsweng ka
177_0461 e ne e sa nowe
177_0465 public transport network
177_0468 civil rights movement
177_0476 ne a sa tswafe ho
177_0478 swahlamana ho nkuweng pusong ya
177_0482 wa sethunya se kgabolang o
177_0487 a tlohile matatilele a re
177_0491 hasan ali shah
177_0492 ho imolla nkgono ho jareng
177_0493 database management systems
177_0494 security assistance force
177_0495 a a nkellang hloohong e
177_0496 international monetary fund
177_0498 sehlopha sa bokone nguni le
177_0499 d e f le g
177_0500 ne a makatswa ke ho
177_0507 utlwi sisa se hlahiswang ha
177_0512 o sitilwe ke ho ba
177_0513 official seed testing station se
177_0514 bo yo ha ho ba
177_0519 e sebeditswe le ho lefuwa
177_0521 ka diotli ho lenonyeletso le
177_0529 ha ho tletsethabo e sa
177_0533 la melata le ho se
177_0534 ho hohela babadi ho reka
177_0535 wa general electric bekeng e
177_0538 ho ne ho tjhesa ke
177_0541 a se a le motjhining
177_0542 e tlamehang ho nkuwa ho
177_0544 dipolelong ka maetsi a matso
177_0546 german air force
177_0547 o ne a nkile moriri
177_0549 engineering task force
177_0550 le tswello di ka fuputswa
177_0551 la provinse dibankeng le ho
177_0552 e governance e learning e
177_0553 po ka dimpa a be
177_0558 le lebiswa ho moadvokate j
177_0560 operation desert storm
177_0561 united states congress
177_0563 hong kong island
177_0565 hillbrow e ne e le
177_0566 itshwere thekeng a re ho
177_0568 ho website ya lefapa la
177_0569 ya swine flu ke ho
177_0579 wee ee a hweletsa a
177_0580 ho nyalanngwa ha di rutwa
177_0583 ya c ebang o sa
177_0585 ba e abetsweng le ho
177_0586 san ji go roc sichi
177_0589 phutholohile ha e ya rarahana
177_0590 manganga a tenang ho kgaruma
177_0592 ke ho ananela le ho
177_0596 fact date november
177_0597 ya ahloletsweng tjhankana ka ho
177_0599 ha se le ka felang
177_0600 le ho itokisa ho re
177_0602 kgodise ha di tshehe tswe
177_0603 o a ntjodietsa ha ke
177_0604 se di sutelwa ka mokotleng
177_0605 american voice actors
177_0611 a ithaburanya ka ha a
177_0614 hlileng e o hwayahwayang ha
177_0617 le ha a le ka
177_0624 sa balang le ha ho
177_0625 ya maswetso e ikarolang ho
177_0626 vasco da gama
177_0627 se lokelwa ho ithutwa sethatong
177_0630 gauteng kamora leeto la balfour
177_0631 holane lebelo re sa ikgapele
177_0634 thabeng le ha ho le
177_0635 bophihlelo ba boiketsetso ho phedisana
177_0636 amohelwe ke registration committee of
177_0637 ho bokellwa le ho hlophollwa
177_0640 ho sa bola o a
177_0641 boi ba tjhetjhe letsholong ba
177_0643 ba kotula lehlaka esitana le
177_0645 ke hierarchy of needs ya
177_0646 l cuin abbr
177_0647 san francisco bay
177_0648 hoba ha ke re ke
177_0652 dibakiso e ne e le
177_0653 ke tshohe moru o se
177_0654 na ha o sa mo
177_0655 a di shebe e be
177_0656 ho latele tumediso monghadi e
177_0657 ya senyesemane le ya afrikanse
177_0658 lejwe hono ha ho mo
177_0659 tshetso ya setekgeniki le ya
177_0663 v ha a ka a
177_0664 ditofo dikisara le dihitara ke
177_0666 dnp ka bophara dnp di
177_0667 mmusong wa ditereke diprofensi le
177_0668 ka ho le akga ha
177_0669 british science fiction
177_0670 a re hela kgudu e
177_0674 ha e kolotwe ka ha
177_0677 a di butseng di ne
177_0678 le ho ntlafatswa e le
177_0679 ha se ne se mo
177_0684 e tshetlehela barutwana le mesuwe
177_0685 e be o pepesa tjhate
177_0690 ba tjheseletswa ka matlung ba
177_0691 ka ha ho ya ka
177_0693 ha o ka wa ntshehetsa
177_0694 letsema o ne a akanya
177_0697 le dumme ha ho be
177_0698 prime minister margaret
177_0701 ho ka hodisa le ho
177_0702 ha ho lefuwe ha ho
177_0708 d ha ho ya ka
177_0709 le ho ba motswadi e
177_0710 a sosobantse difahleho ke ho
177_0711 ngolwa ka ho hlaha lehlakoreng
177_0715 royal swedish academy
177_0719 ya ho leta e ka
177_0720 ha re tu ka ho
177_0728 eo o kileng wa e
177_0732 potetseng e le ho itlhatswa
177_0733 ho ya ka supina ho
177_0735 e ne e leboloi boontatae
177_0736 including population density
177_0738 malabulabu di aperwe ke makgoba
177_0740 ejamethinya o ne a sa
177_0741 ka ha ho nehelanwe ka
177_0742 le se ke la hlora
177_0745 la karohano ya ho ya
177_0747 pope innocent
177_0749 federal reserve bank
177_0750 ka lehlohonolo ka iphumana ke
177_0751 ka e a thulama ke
177_0752 a b c ho belaela
177_0754 american jewish people
177_0755 ha bakopi e se e
177_0759 di be le makgetha a
177_0761 ho ikenya lerapo molaleng tjee
177_0763 ya ho bopa le ho
177_0764 se ke wa qalella ho
177_0766 needed date august
177_0767 social democratic party
177_0770 following world war
177_0771 ntho di hana ho fela
177_0772 ha ka le hlahlamang o
177_0779 a re phamo mokotlana wa
178_0003 a ya lengotswaneng lehaufi a
178_0009 religious organizations established
178_0011 video game console
178_0013 ba banyenyane a re psa
178_0017 di loketse bomang ba dilemo
178_0019 mooki tliliniking e ka marantha
178_0020 e se e le wa
178_0023 academy award nomination
178_0024 e methwang ka dimetara e
178_0032 hobositsweng ka kgoboso eo ke
178_0033 thajana ya mapungubwe kamorao ho
178_0034 ya ho itshebetsa le ho
178_0038 ao a ho tshoswa ka
178_0039 ho ka ikopangwa le iucn
178_0043 hlwahlwa tjhebelopele le pono e
178_0045 humid continental climate
178_0051 di didietse ha di ka
178_0054 ho kenya tshebetsong leano la
178_0055 ba neba e buela sekgukgung
178_0057 mdnb le ho rala mekgwatshebetso
178_0067 ka booker t big show
178_0070 ha a se a bitsitswe
178_0071 kahong ya maitemohelo thekenoloje le
178_0072 moshweshwe moshwashwaila ya e ba
178_0074 e teletsana ho e henahena
178_0075 ya boitjhoriso ba ne ba
178_0076 international monetary fund le ditheo
178_0084 ho ka ba le ngangisano
178_0085 international olympic committee
178_0087 of sa hpcsa e sa
178_0091 national geographic society
178_0096 toropo tokotoko ke eo o
178_0100 na mosadimoholo o ne a
178_0102 be ke le hlokela tlhompho
178_0103 ba re le dipampiring e
178_0105 ba lahlehileng e ya weposaeteng
178_0107 american nobel laureates
178_0108 ka la moshweshwe moshwashwaila ya
178_0110 cite book author
178_0112 i e tsolo le qumbu
178_0116 bomasepala ba lehae le ba
178_0117 qholotsanwa ditjhaba di telela le
178_0121 ba ne ba ka qoqaqoqa
178_0123 ka thotsela sa mmedikane ke
178_0124 ka e ne e re
178_0128 diforomo ha di fumanehe khomputeng
178_0132 e se e bolailwe kematetetso
178_0134 dihlotshwana tsefapafapaneng ho ya ka
178_0135 porafete ho ka ipehwa ho
178_0137 ke ke ra swabela ho
178_0138 ba re rommeng ho a
178_0142 ya kgakollo ha e nkele
178_0143 scottish national party
178_0145 des arts et
178_0146 le ha e le sefe
178_0149 ke se ke le ntshitse
178_0150 a bofubedu bo botala bo
178_0151 mobung oo ba o kopanetseng
178_0153 hakatsa bahlabani le ho tshosa
178_0154 ya diteropo urban renewal plan
178_0155 ha e lelefapha lathuto le
178_0156 re ne re ka ya
178_0157 e labalabelwang ya lerato ya
178_0158 puo e bontshang ho ba
178_0159 moteaphala o thontswe ho ba
178_0160 fatshemoo sa mo hulela ho
178_0164 a na le phekiti ya
178_0166 ha o ka wa ja
178_0168 a be le thahasello ya
178_0169 national inventors hall
178_0170 be ke tsosa dibata masene
178_0172 ho ka ba le kgohlano
178_0173 ha a ne a lwanne
178_0174 le ho kenngwa tshebetsong ha
178_0175 ha ho na le ditletlebo
178_0176 mathobisa ho ka hloma paki
178_0177 ka tsebiso ya koranta ya
178_0179 tempuweng le ho saenwa ke
178_0180 ba ho re rakgwebo a
178_0181 ha ho na ka moo
178_0182 ya sebele ka puisano le
178_0185 tb e ne e sa
178_0186 o na le lenyatso le
178_0187 be a latole bosehla le
178_0188 o re tsosetsa maqeba a
178_0190 ford motor company
178_0192 romelwa ka poso e rejistarilweng
178_0193 united states president
178_0194 puong ya lapeng ho ya
178_0195 thabele manyofonyo ao o a
178_0196 kgolo la puso ya gauteng
178_0197 wa tleliniki ho o fa
178_0198 re a amohetseng a re
178_0199 modula le ho diehisa ho
178_0202 a emetsefeela ho re diphala
178_0203 mongodi o nahanisisa ntlha e
178_0204 qhoba bosiunyana bo le bongnyana
178_0205 le ho hlekefetswa meyeng maikutlong
178_0206 sela meqomong a be a
178_0207 a nkilwe ka boinahanelo ba
178_0211 fekese ha ho se ditefiso
178_0213 e le le molemong wa
178_0215 ha holoholo ha ho e
178_0216 e se e le mesuwe
178_0217 sa d ha e ba
178_0219 international hydrographic organization
178_0220 ho mohlape wa ho tswadisa
178_0222 sa mokedikedi le sa dipidisi
178_0224 ha ho so ka ho
178_0226 e le ha o itshola
178_0230 ke nku ha a lle
178_0231 o se o hlahisitswebakeng sa
178_0232 re ke mo letele ke
178_0233 o se a mo kgorohela
178_0235 ba ne ba phethelwa ditshomo
178_0237 re ha le sa mpatla
178_0238 theho ikgapela setjwaba ka ho
178_0239 robetse mealong ha o sa
178_0240 ba bararo ba ka pakang
178_0241 a re ho ya ka
178_0242 american television actors
178_0243 ya behwang setulong kajeno ke
178_0251 ka ho fetesisa ke ya
178_0252 roman catholic archbishops
178_0253 united states constitution
178_0257 new south wales
178_0258 ka tlung eo le e
178_0259 a be a sa phethise
178_0260 b e ka fetisetsa ho
178_0261 na le letamo le tebileng
178_0263 art deco buildings
178_0265 ka pelepele boitekong ba ho
178_0267 ho buisana le diphehisano ka
178_0269 moiteding bashanyana ba ketimisa dikgamelwana
178_0270 e laollotswe setsheng sa internete
178_0271 american airlines flight
178_0273 ya e mail mosebedisi a
178_0274 di a bulwa di a
178_0275 nyalanngwa ha di rutwa le
178_0278 samane ka seqo ho motsekiswa
178_0279 ke eo e feletse ka
178_0283 mokgodutswane ba o fahla bohlaswa
178_0288 rolling stone magazine
178_0289 world heritage sites
178_0291 e thehileng bodumeding di fbo
178_0292 fapohela kantorong ya mosebeletsing wa
178_0294 e nonneng o thabetse ha
178_0295 e ke ke ya ba
178_0297 fact date september
178_0298 a lemong ya mathateng ao
178_0299 iv ho dilatantle le thekisontle
178_0301 north american continent
178_0303 saint lawrence seaway
178_0305 federal aviation administration
178_0306 ha di a pepeswa ho
178_0308 ho jareng kidibitla e kanakana
178_0309 nyalang ha rakgadiae a re
178_0312 ha e hlolwe ke sebata
178_0314 ka ho teneha tjhe le
178_0316 ho ya ho e ithutwang
178_0319 haeno ha ba a ka
178_0320 c ebang o sa etse
178_0321 ya diflete le c ho
178_0322 e ka tshehetswang ka h
178_0323 cbnrm e ke ke ya
178_0324 sitiswa ke hona ho nwa
178_0325 states military academy
178_0327 eo ho nkuweng sampole ho
178_0328 o halefiswa le ke dinthwana
178_0330 o sa amaneng le baadimi
178_0335 e lekgatheng la lephethi e
178_0336 o e filweng potsong ka
178_0337 eo a sa e boneng
178_0338 a moipiletsi a boipilets la
178_0343 le mphuthileng la mpontsha leratole
178_0344 ka etsuwa ha ho hlahile
178_0345 ya e ba ba ho
178_0349 le ha sasc e na
178_0350 delta air lines
178_0354 sefahleho ka keketso kamehla o
178_0355 woto le komiti ya woto
178_0356 ha dikarabo di nomorilwe ka
178_0357 tsatsi ke le mahlonoko motseng
178_0358 phutoloha ba na le matswalo
178_0361 new model army
178_0363 ho ya ka botelele ba
178_0366 ho ho ka ba le
178_0368 ke ho re a behellwe
178_0369 ho behetswe mekgwatshebetsong maanong le
178_0373 le ha e le hofe
178_0378 including best picture
178_0379 international film festival
178_0381 le ho tsamaelana ho hoholo
178_0382 e ne e kenetswe ke
178_0386 o a mo qoqisa o
178_0388 hlompho ho tlotleha ho ba
178_0392 ba le lmld ka ho
178_0396 e menyane le e meholo
178_0397 professional american football
178_0398 e ne e qaphaletswa ke
178_0399 graphical user interface
178_0401 ba ho tsetelwa moruong le
178_0402 ho ne ho phomoseditswe ka
178_0403 o tjha ntshi ke ka
178_0404 b o lemaditswe ke se
178_0405 ditshwantshiso o ka qaboha ha
178_0406 ja o mo bolaisa ka
178_0408 ho hloleha ha dikamano dipakeng
178_0409 ho ba e lokileng le
178_0410 aneng a ka ba le
178_0411 e sebedisitswe ka bokgoni bo
178_0413 congo free state
178_0414 ho lokelwang ho qalwa ka
178_0416 be kwakwa ya ho hapa
178_0417 devan gar
178_0418 ba le dibotjhe mekotjana letsweleng
178_0419 baseball team based
178_0420 e ne e le moborigadiri
178_0426 o hlanohetswe le ke bothabang
178_0427 ba ntjang direthe hommeng he
178_0428 ho hula marothodi botlolong eo
178_0429 le tlhoko ho fihlele o
178_0433 kenyelletsa nomor e sa tlwaelehang
178_0435 united nations high
178_0440 american stage actors
178_0443 sutu e ntsho eo a
178_0444 emg temg tpp amemg bpmmete
178_0445 re kwetletse lerumo ka kobong
178_0447 matona a robong ho etela
178_0449 ho tekilwe tlhophisong ya ditsiane
178_0451 e le ho itshireletsa le
178_0452 o ne a ikemeseditse ho
178_0453 mean solar time
178_0454 ho ya ho thuseng ha
178_0456 ka sepheo sa ho hlwaya
178_0457 ha ho se ho kgutliswa
178_0458 dikerekeng mafung ba a eta
178_0459 lepotlapotla le ja podi ho
178_0460 le ha ho ne ho
178_0462 ya ho se akaretse ba
178_0463 icd e ka laela ka
178_0464 empa o sebedisa mefuta le
178_0465 re ha ho ne ho
178_0467 e rua le ha ho
178_0468 a ke ke a fuwa
178_0470 malefetsane e motshwana lethisa kgaitsedi
178_0471 e ka suptjwa dipha ke
178_0472 ha kgutshwanyana ho ya ka
178_0474 paterone mokgabiso le kaheho ya
178_0475 purchasing power parity
178_0477 ka ba mabe le ho
178_0478 ho kenyeleditswe le tlhatlhobo le
178_0479 ke ye a se pholla
178_0480 botemengata le ho ba le
178_0481 ho ne ho se ya
178_0482 ha ke se ke boletse
178_0483 kostsi le ke ke la
178_0485 golden globe award
178_0486 ya sekweta e felletsweng ke
178_0487 busetse lenyalo la rasello le
178_0488 ke se ke le mokaana
178_0489 re thuse ho sebetsana le
178_0491 thollo bafokeng ba mo phobola
178_0492 ya ho ithuisa e ka
178_0493 radiokhasete a di rekise a
178_0494 ka hloko o nto araba
178_0498 bo bottle ha a ka
178_0500 di adilwe bomoloi ba ho
178_0502 le kgutsitseng o sa natse
178_0503 bo be bo o timella
178_0504 john quincy adams
178_0507 a ka a ahlolelwa ditlolomolao
178_0508 ho na le phapang ya
178_0511 moahisane a ka tshireletswa ke
178_0512 e sa le wa motonanahadi
178_0515 ho hasana le ho kgobokana
178_0516 e bopehileng le e radilweng
178_0517 ya tlotlontswe kgetho ya mantswe
178_0518 be a kwetlise le bakopi
178_0520 kengakayahao ponoyangakaya specialist e ke
178_0526 bo ntshuwang v ha ho
178_0528 ba ntsukobokobo ba ne ba
178_0529 le dioli di na le
178_0535 ba eleketeroniki ba se ba
178_0537 narrow gauge railways
178_0538 ba habo ngatane ramafothole le
178_0539 english common law
178_0540 le phahamele mapoqo e sa
178_0541 lefiswa e qaqisitsweng ha e
178_0543 e hafaka e ne e
178_0544 a qamaka kwana le kwana
178_0545 setorouku ho ye ho hlokahale
178_0547 ya mapolasi e sa kgoneng
178_0548 otsjet ejiwe la setate emte
178_0550 le qapodiso e kenelletseng ya
178_0551 dipampiring e ne e le
178_0553 sajene mallela o ne a
178_0554 eo o ka e tlatsang
178_0555 le tahleho sekeng sa leilho
178_0556 supreme court decision
178_0557 hapeterose a ne a latole
178_0558 a re gedan barai kumite
178_0562 ne a sa sisinyehe le
178_0563 yonaka lebakala ho se tshepehe
178_0564 e e a ke le
178_0565 ba ne ba sa je
178_0567 sa ho iphedisa le ho
178_0568 phepompe ho na le dinutriente
178_0569 le thella ha a re
178_0574 o ne a bitsitse mmantsopa
178_0576 moetlong wa mahindu ho hatellwa
178_0577 sefahlehosahao se edile o a
178_0579 ya ka nahanang ho mo
178_0581 ya phetolelo ya founu ya
178_0582 ho tlatlaptjwa ha dibanka ho
178_0584 di le kgolwanyanehamonate e le
178_0585 mmampodi kgwaolla ditswakotleng jm lenake
178_0586 le ha ho nehelanwa ka
178_0588 boroko bo se bo iphile
178_0589 tshwarwang ka menwana sa letswai
178_0590 a se ke a tebelwa
178_0592 ho ya ka sekala se
178_0595 o bohale le ho ba
178_0598 di ka tlamellwa fenseng ho
178_0599 letheka e ka la mmamodukule
178_0600 a lebisitseng ho thehweng ha
178_0602 ya matlwana di ba le
178_0603 tsitlallela ho emela boikemisetso ba
178_0605 e ka la mmamodukule o
178_0606 a keketehe ha sehwabane se
178_0607 sekgoba o be o hlahise
178_0609 ka makopanyi masupi le mahokedi
178_0610 polelong ya a le ya
178_0612 ke o rata ke tiile
178_0613 be a se a mo
178_0614 o re ho robala ke
178_0615 melodi diqhomane di kititsa le
178_0616 chester williams o ne a
178_0617 supreme allied commander
178_0618 madume ho boetapele ba mokga
178_0619 tefello ka ho toba akhaonteng
178_0620 la abiele ha re sa
178_0623 le thelefounung ho di e
178_0625 ho kgwehlang e ne e
178_0626 ke ba hodisitsweng ka dikgalemelo
178_0627 pope pius
178_0628 eo e be se hlakileng
178_0633 ka botsona di ne di
178_0634 tlohetse mosebetsiwane wa dikitjheneng ka
178_0636 o fihla ka be ke
178_0637 a le moimana ha a
178_0638 second punic war
178_0639 socialist workers party
178_0640 eo le mmolokileng selemong se
178_0641 ka ho una ho tseteleng
178_0642 army air forces
178_0643 international astronomical union
178_0644 ha difensetere di tjhwatleha le
178_0646 commedia dell arte
178_0647 moeti ya ikemetseng wa ditjhankane
178_0648 le kgothaletso ya boikgwantlello le
178_0650 le tjharola ya mohlankana e
178_0651 o ka be o ntsebisitse
178_0652 le lempetje ha ore o
178_0653 los angeles dodgers
178_0654 lekgomosha ke ha le se
178_0658 fetotsweng lefutso le v melawaneng
178_0659 o ikgotsofaditse ho ya ka
178_0661 ya sethatho ho iswa ho
178_0663 ho ba hlorisa ke a
178_0666 e se e kgelekgetha holele
178_0667 morunyaneng a ba a kgatholoha
178_0668 second world war
178_0669 lepolesa le tsh wanetse ho
178_0670 cc e ka hlodisana le
178_0671 tjhoba le se le letse
178_0673 calluses ho di vocal cord
178_0674 ho rehella ka ho tlotla
178_0675 ho ya thupelong ya tjhoriso
178_0676 ne a se a tenehela
178_0677 ke sa eboneng ke kgathetse
178_0678 ke dule ke kgwabitlwa ke
178_0679 a e i o u
178_0680 ha e le mo o
178_0682 ho kgotlalletsa ba sa bapaleng
178_0683 le ka tjheletevv raboditse o
178_0684 bapisa maelana a ho kholomo
178_0685 boemedi ao ho nehelanweng ka
178_0686 he di ne di ye
178_0687 motsotuwa ho se ho se
178_0688 eo faele ya data e
178_0689 ho re tsekiso ha a
178_0690 anetse ho ba re hedi
178_0691 ho atolosa le ho matlafatsa
178_0692 ka lesedi ho bohle ba
178_0693 okamelwa ke bahlanka ba tshwereng
178_0694 o se o le motjheng
178_0695 e music flat
178_0697 ba ke ba ntwanele molamu
178_0699 ho ba eo rejistra a
178_0700 no tswafa ho le tshwarisa
178_0701 mo kgothatse le ho mo
178_0702 matswantle a iphumanang a le
178_0703 kemohlolohadi a ke ke a
178_0704 kgotjwane le sekoto mmo ho
178_0707 ya authority to apply e
178_0709 metjhini ya othomatiki e sa
178_0711 a kgonneng ho inyalanya le
178_0715 ho ba tlhokomelong ya ka
178_0717 sa sireletsehang re ntlafaditse temoso
178_0718 ne e le senokwane se
178_0720 old catholic church
178_0721 turkish army occupied
178_0722 o sebete sa ho beha
178_0724 ha e sotlwe ke ho
178_0725 ikarabellang diphuputsong ntshetsopeleng le ho
178_0726 bidibidika a be a yo
178_0728 indus valley civilization
178_0729 ja o le tala ha
178_0730 best foreign language
178_0731 sa sefuwa di na le
178_0732 ha ho se ho ho
178_0733 voutu e eketsang voutu eo
178_0734 dikwankwetla bahale ba furallwa kebasadi
178_0735 ho se le nyallano ya
178_0736 american civil liberties
178_0738 ya faele ya sars eo
178_0739 menyako e sa notlelwang hosane
178_0740 pejana ho tswa ho nac
178_0741 ho phethahatswa ha phahamiso ya
178_0742 di na le c ka
178_0744 mohlwekisi wa dikantoro molemi wa
178_0745 se itshwenye le ho itshwenya
178_0746 states marine corps
178_0747 ho buseletsa mo kgwatshebetso wa
178_0748 e mafolo folo e tenyetsehang
178_0749 tadimang e le a behang
178_0750 arohaneng eo o ka e
178_0753 buwa le boraditaba meqoqo e
178_0755 arizona state university
178_0757 nobel prize winners
178_0758 ho se ho apolwa ho
178_0759 ya trc e ke ke
178_0760 oo wa ho iswa ha
178_0761 ba kgonne ho itokolla bafutuheding
178_0762 ka ho re salla le
178_0763 senyesemane le ya afrikanse ha
178_0764 se re a tenehe ho
178_0766 le a hoa ha a
178_0768 mahlaku ho ya ho ya
178_0770 ya itefela wa eletswa ke
178_0772 ya thupa e tlotsitsweng ka
178_0773 di ne di bolokilwe ho
178_0774 masimo a senngwa ho ya
178_0775 ka ha e sa le
178_0776 mo furalletseng ha a sa
178_0777 mabone a re fi ha
178_0778 mophetwa enwa o ne a
178_0781 ho na le ba tlisitseng
178_0782 ka ha ho bontshitswe kabong
178_0784 diminerale le eneji le la
178_0785 a mpone ke le koko
178_0786 d ya itlhahisang ka boqhekanyetsi
178_0789 a ba a mo kgalemela
178_0790 teana le bothata ha a
178_0791 a iphile dimenyane ho ya
178_0792 iketsa ramohlongwana a epa pitso
178_0793 se e sa hane hwetla
178_0794 british television series
178_0795 le be le sulafallwa ke
178_0796 shuu ha ke a kgathala
178_0797 mabotho a masole a malala
178_0799 teboho e be hempe e
178_0800 mabokelle e e mmasebolelo ha
178_0801 league baseball teams
178_0803 southern united states
178_0804 ekakgona a se tlohellwe a
178_0805 ramaqiti e ne e le
178_0806 le eketsehileng ka dintl ha
178_0808 e tshehetsan g di bopil
178_0809 ne o le mongata e
178_0813 larile a latetse ba phirimetsweng
178_0814 microwave radio relay
178_0815 ke ke ba re ba
178_0816 o a iphetela ka ba
178_0818 se ka nako tsohle di
178_0819 ha di se di oroha
178_0820 mapolanka e sa blelwang kaekae
178_0821 ya health risk manager ka
178_0822 sa boithapollo ha e kenyeletse
178_0823 oo ka ha ka le
178_0824 o ne a nqoba ka
178_0826 a patwang ke ne ke
178_0827 ke ka tatela boqheku ke
178_0829 high blood pressure
178_0830 ha ke re jwale ke
178_0831 kgama a arohane ie dibakiso
178_0834 halefa ha monna a mo
178_0835 a haedi ne di le
178_0836 susumetse le ba atelete ba
178_0837 ho hlohloreha ha modula le
178_0838 ka ngollano le yunivesithi ya
178_0839 monaco grand prix
178_0840 e be o na le
178_0841 ya bolebedi ha le apare
178_0842 e tlameha ho tlatswa ke
178_0843 ntshosa ke ne ke le
178_0844 bokgoning nneteng le tlhokong ya
178_0845 horeba mo lebelle o a
178_0846 bahlalifi e be ha ba
178_0847 o na le dipholisi le
178_0848 ke re ke a o
178_0849 phousetara e e hohelang e
178_0852 ao ho lekwang ho a
178_0853 ho tekena phatlalaso le ho
178_0854 le ha e be ke
178_0855 ba ke ke ba o
178_0856 bosiyong ba lefitori ha se
178_0857 ho moabi ya ananetsweng wa
178_0859 kahobotjha le ntshetspele le ho
178_0860 ne a ba ngoletse horeba
178_0861 eighty years war
178_0863 ka noka ya kgotjwane le
178_0865 ke o tsholele mabinabine a
178_0866 ha raboditse a sa hlapa
178_0867 free software foundation
178_0868 re ne re se re
178_0869 ao a a bolaileng ka
178_0870 ho division liquor product stellenbosch
178_0871 le e na le baemedi
178_0872 lesea a be a se
178_0873 ao ke a utlwang ka
178_0874 diphula le diphulana dinoka le
178_0875 ne re hlaselwa ke dinokwane
178_0876 a masehla ao e ka
178_0877 ne a se a hobotse
178_0878 ka thahaasello le ha e
178_0879 ha le tjhaba ke phutha
178_0881 ho mawatle o o hloloheletswe
178_0882 a se ke a ba
178_0883 leka ho o hlaba malotsana
178_0884 tshila e se e bokellane
178_0885 kgatello e phahameng ya madi
178_0886 rejise tara le sephetho di
178_0887 mo lwantsha ha ho na
178_0888 a keke a boloka ho
178_0889 hlompha mamela ka tshetshefo ka
178_0890 le ke le atlehe v
178_0891 ke e nyatsang ke ya
178_0892 mope leto di ngata ma
178_0893 ba eta ha palaemente e
178_0895 sa le e qheletswe ka
178_0896 ne e se ho re
178_0899 dikontraka ditiiso ho bakadimi ba
178_0900 batswetse ba kgiba ho le
178_0901 ya tselakgopo sekere ke sa
178_0902 e tshwarellang e susumetsang le
178_0903 e se e hlwedisitse ka
178_0904 be o se o e
178_0905 universal postal union
178_0906 white blood cells
178_0907 kahisano le a semoya a
178_0908 kgetho ya mantswe e bontshang
178_0911 ha e fapohe popehong e
178_0912 e kgonehang ya tefiso ya
178_0914 b c d o ka
178_0915 o sa rateng le ha
178_0918 e na le mokakallane wa
178_0919 ha tehpa e ka rekiswang
178_0920 bophirima ka botjhabela ho ho
178_0922 ho ja ha a ne
178_0923 random access memory
178_0927 ha e nkwe e le
178_0929 ne ho ka ba le
179_0002 a tshola tlhako morong a
179_0003 independent complaints directorate ha o
179_0004 afghan national army
179_0007 kheri matswai a natefisang pepere
179_0009 ne a ye a utlwele
179_0014 ha e le afeng moikopedi
179_0015 ofihlile a idibana ha a
179_0016 o le bookameding bo bohareng
179_0024 ba ikutla ha ba jara
179_0027 a kgweditharo ha di tshwenye
179_0028 sir harry warden sir harry
179_0030 o a e phehisa kano
179_0031 batlwang ha ho namolwa dinyeweng
179_0033 ee bo ne bo methwe
179_0035 ya akhauntu e kopanngweng ho
179_0036 ke ba inkela filosofi e
179_0044 a o jwetsa masaakokometse a
179_0046 di mathuleng a ho finyella
179_0047 ha ho kwae koomeng ho
179_0048 difariki ya ka ha ho
179_0051 partial differential equations
179_0052 di tadingwa di na le
179_0053 e le sekgukhuni o ne
179_0058 ha ho ne ho timetswa
179_0060 air force base
179_0062 ke tshwanetseng ho ya ho
179_0064 mokg watshebetsong wa ho tokafatsa
179_0066 ka ho founa di ka
179_0067 le se le hopotse ho
179_0074 komiti ya tekolo ya tekano
179_0076 ya d e f le
179_0085 red blood cells
179_0086 leshome le metso e mmedi
179_0087 ne a na le kgahla
179_0090 john von neumann
179_0091 ke ho re ho se
179_0092 a se a fetohetse le
179_0093 a e ka ballwang ho
179_0095 a ne a bonesitse a
179_0096 ho ka tshohlwa le ba
179_0097 ho ikana a se ke
179_0100 o na le ho se
179_0101 ya ho ingodisetsa ho vouta
179_0102 ho ruta le ho ithuta
179_0109 eo o e kgethileng o
179_0123 rational choice theory
179_0124 a o shobile a o
179_0126 a behwe ha a behwe
179_0130 hloboha ho mo hloboha ka
179_0136 le sa kokota ha ka
179_0144 le ke le mo nehe
179_0147 dikgoto disenyi ho ata ka
179_0148 e re ke mo letele
179_0149 western classical music
179_0150 amohelwang ho ba eo ho
179_0152 e se e le dikgutsana
179_0155 e ka nnang ya unwa
179_0162 natural law party
179_0163 na le neo ya ho
179_0164 chinese civil war
179_0166 kgutlele ho sera sa ka
179_0171 ha o ne a sa
179_0177 martin luther king
179_0184 e be bo se bo
179_0189 ne e le le ntshang
179_0190 e kgothaletsang a sekaseke ho
179_0193 accident statistical system samrass o
179_0195 o se a le ho
179_0196 bolokolohi le ho ikutlwahatsa ka
179_0202 ho ya kaboholo ieboleng ba
179_0204 be o mo lakaletse mahlohonolo
179_0205 ke ho re ba bojwalane
179_0206 professional baseball teams
179_0207 fact date june
179_0208 bokantle ba makasine o arabe
179_0209 motlanyatsi ya ka sehlohong wa
179_0211 e hlotsa e mo tseiditse
179_0219 o ne a sa itlwe
179_0221 e qadile ho o tshwenya
179_0223 ke sehlopha sa baprofeshenale ba
179_0225 holy roman emperors
179_0236 los angeles county
179_0237 ne a ye a kgonye
179_0240 ke se ke o atameditse
179_0242 ka ho phahamela ho hlwibila
179_0243 a se a sa ye
179_0246 swiss german dialects
179_0247 ditho ya inthanete member online
179_0248 ne a sa phetse ho
179_0249 ba belehwang ba e na
179_0250 ho thehilwe ho arolwa ha
179_0253 cell lung carcinoma
179_0255 british army personnel
179_0256 nuclear magnetic resonance
179_0259 ha e nnqwe e tshetse
179_0265 tene senna itahleleng le lwe
179_0269 ke foko mmetso ke pataolo
179_0270 boiteko bo etswang ba ho
179_0271 le lesweu o feleheditswe ke
179_0272 second polish republic
179_0286 ha rakatara a se a
179_0287 lesisithehonyana ho ka phunya seso
179_0289 narrative a re qoqela ka
179_0290 ya hatisitseng ya phatlaladitseng ya
179_0296 phofue ka tshohang e tshwasitswe
179_0297 red hot chili
179_0299 ha ho ne ho phelwa
179_0300 eo ha ho se ho
179_0302 siilweng ke ntata diepollo a
179_0303 senyesemaneng le afrikanseng ha ho
179_0309 flagship radio station
179_0310 mmuele le ha a ne
179_0312 ya sehlekehleke sa deidro e
179_0314 o entseng se sekaale ha
179_0316 a ka tshireletswa ke paja
179_0317 ke mathela ho sylvester eo
179_0319 ka mahlokwa a fohlilweng makgapetla
179_0320 motsana wa menkgwaneng o qetse
179_0323 le sa duletseng boshof re
179_0325 ke eo mo a emeng
179_0328 hlapanyeditsweng e tiisang boitshetleho ba
179_0329 european central bank
179_0330 ba wa kitikiti kitikiti kitikiti
179_0333 national basketball association
179_0334 di tsamaise di di laole
179_0335 ao ke qetang ho o
179_0336 ka morao ho ditherisano le
179_0338 population growth rate
179_0339 nkatana ho ikgona ho kgora
179_0341 e fanweng di a fumaneha
179_0342 bo be bo mo timelle
179_0345 ne a mo laile ka
179_0350 o phethelwa ho o hlahlamang
179_0352 ba ho o aba o
179_0353 o kgutlile a se a
179_0355 dintho ka lehlakore le le
179_0357 san diego padres
179_0358 ba lwantshana le mashodu a
179_0359 e ahlolwe e be ka
179_0363 tleloupung le mmapeng wa atlelase
179_0370 la porovense la kgauteng ke
179_0371 omosweu o se o thuntse
179_0372 ne e le makaroff nthwe
179_0373 di sa fahlwa a kokosile
179_0379 kgarafu ya sekopo ho raohile
179_0380 ba dikalaneng ba mo tsebileng
179_0382 se seka sekwa le ho
179_0383 bo bottle le ho tataisetsa
179_0384 tsebiso ofising ya moporemiri di
179_0385 ha le qhibidiha dithabeng ha
179_0387 ho nona mohaditsong a re
179_0391 ke se ke ka kgoba
179_0395 american quarter horse
179_0397 ne o ka ba tlamella
179_0398 sesupo sa ho inehela ha
179_0400 e re kg kg kgrr
179_0401 o rwesitsweng ofisiri eo ya
179_0405 wa ho re ba se
179_0408 otlolohileng le ha e na
179_0412 a tsepamisitswe ho phelelaneng ha
179_0413 ho ba sedi mehopolong e
179_0414 a tshwaye a ipapisitse ka
179_0416 eo di mo tshwarang ho
179_0418 piet o letlaila ha o
179_0424 mosebeletsi wa laeborari ya heno
179_0425 united states code
179_0426 tampa bay buccaneers
179_0428 se lokolohileng bofumeng le bohloking
179_0432 di kenyelletswe le ho hlabollwa
179_0433 le ho nehelana ka ditema
179_0434 european union member
179_0436 e ke ke ya rarolla
179_0437 le tjhesa le le ka
179_0439 referense ha ho se ho
179_0441 ba arola ho ya ka
179_0442 ngotse ba ikopela ho ya
179_0448 lemotsotso ho ya kamooseroki sesusumetsehangkateng
179_0453 itwanela ka ha a ne
179_0454 ke mohlohlwa o rapame se
179_0455 bo ke ke ba fola
179_0456 mootlwana wa moma katibanyana ya
179_0457 ya ho falwa le ho
179_0458 ngwanelajakane a ba a timellwa
179_0459 a ka a mpotsa ke
179_0460 ka kgang ha ke re
179_0464 wa tlhahiso ya lenanetsamaiso la
179_0465 sa fellang e ka ho
179_0467 se sa thuswe ke moemedi
179_0468 ke ne ke le manganga
179_0471 ya botegniki patlisisong ya dikotsi
179_0472 resources ke ha mekgolo leaves
179_0474 islamic conference members
179_0477 democratically elected government
179_0480 e mo hlekefetsang ke ba
179_0481 di billiard ho haha le
179_0485 a lakatsang ho ba sona
179_0486 a re ake uke ichi
179_0487 se e le ba ahetseng
179_0489 a nthuta ho fina setebele
179_0490 ka usa britain le dinaha
179_0491 ka ba ke re ke
179_0493 monokotshwai ha o butswe ka
179_0494 e ne e re ke
179_0495 lebellwang ke diphofu le a
179_0503 a laolwe ke gcis ba
179_0505 a se a sa di
179_0506 frank lloyd wright
179_0507 ya ho rafa ya ho
179_0509 ho kopana ka ho intsha
179_0514 ba ho kgwaritsa ba ho
179_0517 ho ikisa ntlwaneng erekaha a
179_0518 di itshetlehe kamanong ya dibui
179_0519 ha e na ho tshetswa
179_0521 eneng e le ho qobisa
179_0522 belehwang ba e na le
179_0524 letangwana la ho sesetsa ba
179_0527 a iphetapheta e tswile lekoteng
179_0528 a ke dithothokiso b ke
179_0529 new orleans saints
179_0531 e sa tshwaneng le o
179_0532 hlokehe ha ho se ho
179_0533 algebraic number theory
179_0538 acquired immune deficiency syndrome eo
179_0540 ho ba boimanyana ho le
179_0548 le ha e le e
179_0549 a re habore a sa
179_0551 ha ba ne ba e
179_0552 e be o a e
179_0553 la haeka nakoeo e le
179_0555 ka ha ho se na
179_0557 ho khanseling ya borutehi le
179_0559 new england patriots
179_0560 high middle ages
179_0562 ho o nahanisisa ho o
179_0568 ke be ya phaellwa ho
179_0569 o a ka wa ahela
179_0575 ho e kama wiki e
179_0580 magnetic resonance imaging
179_0582 bo ne bo hlomola ho
179_0586 o motjodi o tono se
179_0589 se tlisang tlhonamo ho ntatemoholo
179_0592 greek orthodox church
179_0593 ka ho mo fa bolekana
179_0594 ka tlhapi le dinawa le
179_0595 ha se eo a mo
179_0596 ho finyellwe le ho qhalanngwa
179_0598 wa ka ya bitswangsentebaleng o
179_0599 e se e le shwalane
179_0602 ke hlole meleko e ntobileng
180_0001 diradiong le dithelevisheneng ho ne
180_0003 ho arabela kgoeletso ya ho
180_0004 qhii a ba a inamisa
180_0005 united methodist church
180_0008 wa sa management development intitution
180_0010 e se e nyeunya diboko
180_0011 na le maikarabelo a ho
180_0013 ho omanngwa hokgarametswa ho rohakwa
180_0014 ne hobonahala ho re nkgonae
180_0016 koppen climate classification
180_0023 ding ho na le phetapheto
180_0029 kgudu ke sethoto le semumu
180_0034 o hanelle ka dikobong ho
180_0037 ntlong ya thitelo ha mantshele
180_0038 tshiveda sendebele le siswati di
180_0039 kgotha le ho hlwekisa jarete
180_0053 e re ka ha ho
180_0058 nations high commissioner
180_0060 ke ne ke sisinya ho
180_0065 average annual rainfall
180_0068 dikonsarete ho ne ho se
180_0072 native american tribes
180_0080 south african government
180_0082 yellowstone national park
180_0084 be le social worker ya
180_0085 se se se qhaphaleditswe ke
180_0089 e sa phutoloha ba na
180_0093 ya mahlaku ho ya ho
180_0095 le dibukana ha di na
180_0096 lesira le le pudutswana la
180_0100 sebo peho ka b o
180_0107 ba ikgantsha le ho ba
180_0111 etswe le ditsebi di a
180_0113 main sequence stars
180_0122 test ban treaty
180_0126 o ke o tlohele ho
180_0133 le ha ebe ha o
180_0138 articles containing proofs
180_0140 di botse e ya kae
180_0142 o sa ye ngakeng o
180_0143 sa yang kerekeng e le
180_0144 ka hodisang dipoelo ka ho
180_0147 la ho pepa le eteletswe
180_0148 mothendari a ka phumola ho
180_0150 a absa fnb nedbank a
180_0153 hlophiswe le ho hasanngwa ho
180_0154 ho ntjwetsa dife na jwale
180_0155 ho ingamangama ke le bule
180_0156 nkgolwe ha ke re ke
180_0160 ya ho thaotha le ho
180_0161 le tikoloho eo ba phelang
180_0162 se sebetswe ka le ho
180_0164 ho fetisetswa ha tehpa e
180_0167 ke lehe ha o rwale
180_0171 ditjaka a sa jese thweetsana
180_0173 leihlo le fahlwa le shebile
180_0175 o foseditseng ha ho ka
180_0177 ha di eme di botse
180_0179 mose wane ho meedi ya
180_0183 million metric tons
180_0189 ho na le ho e
180_0191 ya ac jordan e bitswang
180_0194 e mong le e mong
180_0198 million years old
180_0200 ho ke ke h a
180_0205 thotwana ho ngala ho thoba
180_0214 horizontal gene transfer
180_0216 le re fihlise re bolokehile
180_0219 ha re re re qhwaolla
180_0233 carnegie mellon university
180_0234 e a behelwa ho o
180_0239 a re o ikgutlisetsa o
180_0241 ba bamemuwa makhing wa bahlomphehi
180_0245 e ne e le polokwe
180_0249 monga mobu a ka ya
180_0251 primitive recursive functions
180_0252 early iron age
180_0253 di springbok ka ho ba
180_0255 ya turfloop mekete ya ho
180_0262 o qalella ho lla ho
180_0263 pala ha ba se ba
180_0269 ho oo ho fellwang ho
180_0272 mahlale le theknoloji ho ka
180_0275 operation iraqi freedom
180_0276 se ka susumetsang babadi ho
180_0277 na bontate ba dumelletswe ho
180_0281 re sejana se setle ha
180_0284 ka eo le re qhoshetsang
180_0287 ne re ya ka nnqeng
180_0291 e a apesitse ho phema
180_0292 ya pdf ya phr e
180_0294 narrow gauge lines
180_0298 a thekeselang a moruo wa
180_0300 le tsietsing e tshabehang ha
180_0302 felehetswe ke tjheletana ya ho
180_0309 ya ho tshwarelwa ho leswe
180_0311 ho kgutleha hlakoreng la methepa
180_0315 ngwanangwanake o tswere ya ditswere
180_0316 ho se ke ha lwanwa
180_0318 ha a le d e
180_0322 clarify date march
180_0324 ho kgalengwa re ke ke
180_0325 be o tshetswe ke bannga
180_0326 ya ho suthiswa ha baipehi
180_0328 kgothatswa ke ho thaotha ho
180_0329 green bay packers
180_0330 iv ka ho hokela ka
180_0331 ripoto eo e se e
180_0333 wa matona a robong ho
180_0336 metsikapa e mo shapang ho
180_0338 great rift valley
180_0347 e ne e le mokgashane
180_0348 personal income tax
180_0349 ya palohare e ne e
180_0350 la kgiro haeba o le
180_0351 di lokisitswe ha ho balwa
180_0352 wa ntsholela hanghang o re
180_0359 le ho otlwa e le
180_0360 sa bollang ha a qhaleha
180_0365 ya tlhalo ba romele afidaviti
180_0366 clarify date december
180_0371 yeo re ka e fang
180_0373 a dipudulwana a dimenerale ho
180_0375 ha e utlwahale ha e
180_0376 e be e amohelehang e
180_0378 ngwanaenwa a nthuta ho fina
180_0379 le dithelevisheneng ho ne ho
180_0380 se ke ke sa kodumela
180_0383 ka ho ba le dikgothaletso
180_0384 jorge luis borges
180_0385 aphela o photjhotse ha e
180_0390 ka moahi wa joburg ho
180_0391 a mo phehela motoho wa
180_0395 o re ho etsahalang hantlentle
180_0398 pheko ke mosotli wa meya
180_0410 be a di hlatswe a
180_0412 p na ho na le
180_0415 ne ba sa tshabe ho
180_0417 lengau le ne le le
180_0422 phokotso ho fanyehwa le ho
180_0423 ke ke wa keketeha ha
180_0424 kamohelo ya ho thonngwa le
180_0426 bo ma hareng ba ho
180_0429 re a se bonye le
180_0433 tsitsitseng ya ekonomi ka ho
180_0435 mpehile merebele e le ka
180_0437 le ausi ha ba a
180_0438 rugby world cup
180_0439 ka ha ho e na
180_0440 le wa makgowa o itshasa
180_0443 nnetee nee yeere ha ke
180_0444 e etsetsang tshehetso e ka
180_0450 o ne a itulela hahabo
180_0454 di jehang ba kgonang ho
180_0456 sulafalletswe le ho ja ho
180_0462 seroki sa morenengha ho etellwa
180_0465 polymerase chain reaction
180_0467 phefumoloho ho kgohlola le ho
180_0470 sa phetla le ho phetla
180_0473 ho mo lwantsha ha ho
180_0474 ho mofani ke mohato wa
180_0476 ya dikgetla ho kutwa ha
180_0478 persal e fumaneha setlankaneng sa
180_0483 se o le pshasha ho
180_0485 ka moamohedi wa setswakantle ho
180_0486 ka motswetseng ho sa hlonngwe
180_0489 ne a utswitse diphahlo lebenkeleng
180_0492 ho raleng le ho phethiseng
180_0493 ka ha o tlwaetse ho
180_0494 ke lesira le le pudutswana
180_0497 career home run
180_0498 be le tshwano ha ho
180_0502 se ke wa ya le
180_0503 ho hiruwa ha ka potefoliong
180_0506 american film producers
180_0511 le eo e hlonngweng ke
180_0512 ha e ba ho na
180_0515 ne ba sa di fumantshwe
180_0528 ha re ka ra bo
180_0529 in die land wat die
180_0532 ho south african revenue service
180_0533 eo ha e na mokoka
180_0535 lehlwa ha le qhibidiha dithabeng
180_0536 ne a imakaditse ka ho
180_0540 ke hora ya bohlano thapama
180_0544 diselefounu di ka utsuwa ho
180_0550 ho itshetleheng ho sa hlokeheng
180_0551 ka ke iteletse ho lwana
180_0553 a borikgwe bo botsho kausu
181_0001 o ne a wetswe ke
181_0003 bulele ha ho se ya
181_0004 ne o ka mo qenehela
181_0006 e ntsee matlafala ha se
181_0007 na ho ba le boitelo
181_0008 ka ho qholotswa le ho
181_0009 ya thutapuo ka bokgoni bo
181_0010 united states government
181_0011 panado ya mokedikedi e tsebahala
181_0012 mothusi wa sadc eo e
181_0013 ho division liquor products stellenbosch
181_0015 tjhonneng ha a ka a
181_0018 ya mokganni wa borutehi bo
181_0019 a mo thiba a ba
181_0020 holy roman empire
181_0021 a mo shapileng hamper ka
181_0023 bo omeletseng bo meqilweng ka
181_0025 ho nthusa ha ke le
181_0026 mofelehetse ka ho re ha
181_0027 ho moedi wa bofutsana le
181_0030 ho ka boelang ha kenyeletswa
181_0031 e meng e ne e
181_0032 natural number n
181_0034 qaka eo a tshwarahaneng le
181_0037 best original screenplay
181_0038 ke ne ke le tsietsing
181_0039 ka ha a mo tlwaeditse
181_0041 hahang ha a hlokofetse a
181_0042 e le ha a sa
181_0043 mehau ha re a bokolle
181_0044 mandela o ne a le
181_0045 dikgohlopo o ne a na
181_0046 ho se tshwanelwe ke ho
181_0047 le ya bonna le bosadi
181_0048 itlaleha lehlaba le mo nkileng
181_0049 efela e le ya tlotseng
181_0050 lethathameng le pharaletseng le le
181_0052 a ka re hopolang ka
181_0053 ho se mo sune ha
181_0054 di buisane le fhr ka
181_0055 se e le ka makgetlo
181_0056 verify credibility dater
181_0058 rejisetara le sephetho di loketse
181_0059 v ha a ne a
181_0060 e tshelwang matamong a ho
181_0062 otlile a ba a mo
181_0063 dubious date march
181_0064 ke ha a rohakwa ka
181_0065 e hlwailweng ha ba ha
181_0066 ke ho methwa ha mafura
181_0067 ba sebedisang matsoho ho buwa
181_0068 e ka ha ho a
181_0069 ne sa e romele ha
181_0070 phokotso phanyeho le kgaotso ya
181_0072 e kotjwang ke rekoto ya
181_0074 army air corps
181_0075 letlalepepilwe o ithorisa o re
181_0078 ha o ja ho ja
181_0079 le ntshiuwa ba se ba
181_0081 ho se tlhokahalo ya ho
181_0082 ho roka ke ho bokotsa
181_0083 le na le vitamin d
181_0085 kemangau a e hlepholaka ka
181_0087 continental united states
181_0088 blood pressure hypertension le asthma
181_0089 a ithorise ka lefeela la
181_0091 ya thothokiso le ya sengolwa
181_0092 o e romelang ha se
181_0094 game boy advance
181_0095 p na ke lefa ka
181_0097 a ke keng a ba
181_0099 eng ha o se o
181_0100 kgodise ha di tshehe tswe
181_0101 o a ntjodietsa ha ke
181_0102 se di sutelwa ka mokotleng
181_0103 american voice actors
181_0104 ke ne ke etetse ha
181_0106 yahae e talana e pepileng
181_0109 a ithaburanya ka ha a
181_0111 free market economy
181_0112 hlileng e o hwayahwayang ha
181_0117 kantorong eo molefi a dutseng
181_0119 o kgesa ha ba o
181_0120 phokojwe ha e tshela moedi
181_0121 le mmatheko ene e le
181_0122 sa balang le ha ho
181_0123 ya maswetso e ikarolang ho
181_0124 vasco da gama
181_0125 se lokelwa ho ithutwa sethatong
181_0126 mmontsha tosa le madinyane a
181_0127 ha mosifa o honyela o
181_0128 gauteng kamora leeto la balfour
181_0129 holane lebelo re sa ikgapele
181_0130 ne ke re na ha
181_0131 modumellani a ke ke a
181_0132 thabeng le ha ho le
181_0133 bophihlelo ba boiketsetso ho phedisana
181_0134 amohelwe ke registration committee of
181_0136 manyala a entsweng ka boomo
181_0138 ho sa bola o a
181_0139 boi ba tjhetjhe letsholong ba
181_0140 ho be le makalana mabatoweng
181_0141 ba kotula lehlaka esitana le
181_0142 ka mmaletswai o ne a
181_0143 ke hierarchy of needs ya
181_0144 l cuin abbr
181_0145 san francisco bay
181_0146 hoba ha ke re ke
181_0147 thellisane phupekalefe di ne di
181_0149 ne a se a tletse
181_0150 dibakiso e ne e le
181_0151 ke tshohe moru o se
181_0153 a di shebe e be
181_0154 ho latele tumediso monghadi e
181_0155 ya senyesemane le ya afrikanse
181_0156 lejwe hono ha ho mo
181_0157 tshetso ya setekgeniki le ya
181_0158 motlakase ba fepelwang ka motlakase
181_0159 ne ba ithabetse ba ipinela
181_0160 o ka ba le sethunya
181_0161 v ha a ka a
181_0162 ditofo dikisara le dihitara ke
181_0163 letshwele ha o tswelapele ho
181_0165 mmusong wa ditereke diprofensi le
181_0166 ka ho le akga ha
181_0167 british science fiction
181_0168 a re hela kgudu e
181_0169 a be a itsamaele ho
181_0171 ka ho o nahanela re
181_0174 middle east peace
181_0175 a di butseng di ne
181_0176 le ho ntlafatswa e le
181_0178 o jewe ke haretsebe ke
181_0180 o o bale hape ho
181_0181 ha o na ho ba
181_0182 e tshetlehela barutwana le mesuwe
181_0183 e be o pepesa tjhate
181_0185 kenelletseng a rere a be
181_0187 le ha di ngotswe di
181_0188 ba tjheseletswa ka matlung ba
181_0190 e ne e le ha
181_0192 letsema o ne a akanya
181_0194 a kenetswe ke mokgwawa holora
181_0195 le dumme ha ho be
181_0196 prime minister margaret
181_0200 ha ho lefuwe ha ho
181_0201 bokamoso ba ka ha o
181_0202 bomasepala ka ho ikamahantsha le
181_0203 e ne e ba feko
181_0207 le ho ba motswadi e
181_0210 e kgephola tjhabana sa rantsho
181_0212 tetse ka kgopolo ya ho
181_0213 royal swedish academy
181_0215 le sekwahelo se kwalehang ka
181_0217 ya ho leta e ka
181_0221 o nea itswele a le
181_0223 lesweu mehoo ya dithotsela lemoya
181_0227 ka ba wa touta ka
181_0228 national public radio
181_0229 ho qekwa le ha ho
181_0230 potetseng e le ho itlhatswa
181_0231 ho ya ka supina ho
181_0233 e ne e leboloi boontatae
181_0234 including population density
181_0236 malabulabu di aperwe ke makgoba
181_0238 ejamethinya o ne a sa
181_0239 ka ha ho nehelanwe ka
181_0240 le se ke la hlora
181_0241 mokgatlo wa tsoseletso ya boitshwaro
181_0245 pope innocent
181_0247 federal reserve bank
181_0250 a b c ho belaela
181_0252 american jewish people
181_0253 ha bakopi e se e
181_0255 ke mo tadime le ho
181_0258 eo hothweng ke hopahete ha
181_0259 ho ikenya lerapo molaleng tjee
181_0260 wa boithaopi o bontshitsweng ke
181_0261 ya ho bopa le ho
181_0262 se ke wa qalella ho
181_0263 e ananetsweng e na le
181_0264 needed date august
181_0265 social democratic party
181_0267 e ne e le yonatabataba
181_0268 following world war
181_0269 ntho di hana ho fela
181_0270 ha ka le hlahlamang o
181_0271 ba be le boikemelo le
181_0272 ya mdnb le ho rala
181_0274 menngweng ka boithaopo ho etella
181_0275 ya bodudi ba saruri ba
181_0277 a re phamo mokotlana wa
181_0278 a na o ne o
181_0279 ya monyemo yafapanyang dikgarebe le
181_0280 ho kgetheha tekanyo ya ho
181_0281 bokudi ka ho fapafapana matoto
181_0282 free software foundation
181_0285 ho division liquor product stellenbosch
181_0286 le e na le baemedi
181_0287 lesea a be a se
181_0289 diphula le diphulana dinoka le
181_0290 ne re hlaselwa ke dinokwane
181_0291 a masehla ao e ka
181_0292 ne a se a hobotse
181_0293 ka thahaasello le ha e
181_0296 ho mawatle o o hloloheletswe
181_0298 leka ho o hlaba malotsana
181_0299 tshila e se e bokellane
181_0300 kgatello e phahameng ya madi
181_0301 rejise tara le sephetho di
181_0302 mo lwantsha ha ho na
181_0304 hlompha mamela ka tshetshefo ka
181_0305 le ke le atlehe v
181_0306 ke e nyatsang ke ya
181_0308 ba eta ha palaemente e
181_0310 sa le e qheletswe ka
181_0312 na le leqeba le hanang
181_0314 dikontraka ditiiso ho bakadimi ba
181_0315 batswetse ba kgiba ho le
181_0317 e tshwarellang e susumetsang le
181_0320 universal postal union
181_0321 white blood cells
181_0324 e ke ke ya transferwa
181_0326 ha e fapohe popehong e
181_0328 le ka rarollang tshubuhlellano e
181_0332 maqaqailana melamu ya ho ikokotlela
181_0333 e na le mokakallane wa
181_0335 bophirima ka botjhabela ho ho
181_0336 swabile nko ho feta molomo
181_0337 ho ja ha a ne
181_0338 random access memory
181_0339 re balella dikhamphani dikhophoreishene bommasepala
181_0340 leonardo da vinci
181_0341 bo ha ke no kgutlela
181_0345 nke ke ka e emela
181_0346 nfl championship game
181_0347 ka itahlelang lemeneng la ditau
181_0350 sebete o sa natse le
181_0351 babedi bao re ka iteanyang
181_0353 ya leon ho ne ho
181_0354 ft m long
181_0355 o ka re tshomo ee
181_0358 mean value theorem
181_0359 ha ke a kgathala le
181_0360 ra ntswa ntweng re se
181_0363 di sa le yo ho
181_0365 ha ho na le tefelo
181_0366 disoseji le makwenya di ka
181_0368 ka sasol anglo le bhp
181_0369 le ne le le mading
181_0370 sila ho tswaka le ho
181_0373 thulare le se le itokiseditse
181_0374 imperial japanese navy
181_0378 seretse se e silafaditseng ha
181_0379 ya maeto ha ho se
181_0380 e tlohang le sepolo ho
181_0381 north american free
181_0382 united states naval
181_0384 a se a le moimana
181_0385 a dulela ho e borosola
181_0386 karolong ya b le ya
181_0388 ha o qetile o arabe
181_0391 color field painting
181_0392 patlisiso ya botjhutjhisi mekgwatshebetso ya
181_0393 tshobotsi kateng a se a
181_0394 ha ho ya holebilwe eo
181_0395 ha a o letsa o
181_0397 sacnasp professional advisory committee e
181_0401 o ne a se na
181_0402 motjhesong wa kamore di latsweha
181_0403 tinare e le mokopu ka
181_0404 ena e na le dikarolo
181_0405 e akaretsang meedi ya dithuto
181_0406 second largest city
181_0407 ya seteisheneng sa sepolesa se
181_0408 y a mehang a ka
181_0409 takilwe mmapeng wa gis ka
181_0410 na e be ha o
181_0412 a foreshe e laolwang ke
181_0413 le dilomo meru e kopaneng
181_0414 australian capital territory
181_0416 a ka re o sa
181_0421 o e fetolele ho boetsuwa
181_0423 o sitwang ho a qoba
181_0424 wa bobiala o ne o
181_0425 a le thelefounung ho di
181_0426 ha e se e le
181_0427 le se le letse phoka
181_0433 mmuso wa provense ya freistata
181_0434 drug administration fda
181_0435 o tlabidika a thwene a
181_0436 mophedisuwa e tlatsitsweng foromong ya
181_0437 o se ke wa mpitsa
181_0440 na le phehello ya ho
181_0442 o puta ha le le
181_0443 mekutu ya ho potlakisa kgokahanyo
181_0446 ditloholwana na ebelefatshe le ya
181_0447 ha tokollo ya fpe e
181_0449 dilamunu dilemone diphaenapole le ditamati
181_0450 dihlooho le di hloohwana ditemeng
181_0451 holetseng ba kwalehile ba sa
181_0452 tshebediso ya matshwao a puo
181_0453 masitha o ne a tshajwa
181_0454 kgalefo eo ha e na
181_0455 o besang o tuke ho
181_0457 o ka fa sheri wa
181_0458 ho re ke a o
181_0459 elektroniki ha e laollotswe setsheng
181_0460 e ne e mo arohantse
181_0462 states army soldiers
181_0463 leshome le metso e mehlano
181_0464 keletswalo la horemohlomong o ka
181_0465 le ho nehalana a hlokometse
181_0466 mphe semeremere le tshea ke
181_0467 ya panama ya re pheu
181_0468 pepeneng le ho se be
181_0469 e le lekunutu ho inkunela
181_0470 o ne o re na
181_0471 e phethahetseng ya tlotlontswe le
181_0472 le leng le le leng
181_0473 ha o se o ngodisitswe
181_0474 e sa le ke na
181_0476 wa tlelapo ya lantjhe b
181_0478 ho sitswa ho hlohonolofatswa ka
181_0480 e kenyeleditse tekolo ya ditlhoko
181_0481 dulellana le ho bitsollakaka bakgotsi
181_0483 ba thapameng eo ha hanghang
181_0492 bopilweng ka bokgabane le ka
181_0493 ya o foseditseng ha ho
181_0494 ho ne ho le thata
181_0497 le c dipehelo le dipallo
181_0499 chikano e ne e le
181_0500 a itholela a re tu
181_0501 major league history
181_0503 reactive oxygen species
181_0504 ba ka ke iteletse ho
181_0505 tsamayelana lekotsi e kieng ya
181_0507 tlamang ho ka phethwa ke
181_0508 great lakes region
181_0510 tsilatsila ho o jwetsa ka
181_0512 maidiidi a mo lesa a
181_0513 ya ditoropo ho kopanyeletsa le
181_0517 ya boeletsi re motjheng wa
181_0518 le tjhabile le monatjana ho
181_0519 e be e le ha
181_0520 sa dumele ho ka fefolwa
181_0521 fihlellwang ho e na le
181_0524 iowa state university
181_0525 o lematsa ntjapedi ha e
181_0526 sireletseha ha ho ka etseha
181_0530 fact date july
181_0534 wa mahindu ho hatellwa difeleng
181_0535 autlwe ho bolediswa bokweta bo
181_0538 be le e ngatanyana ba
181_0540 eteleditsweng pelepele di rerile ho
181_0541 e na le histori e
181_0543 di apostille certificate ke ditifikeiti
181_0545 le manyofonyofo a swabisang tsama
181_0546 mathang ka tlase ho lefatshe
181_0550 bo a mpelaetsa ke ka
181_0552 free trade association
181_0553 ha ke re fara ho
181_0555 chinese communist party
181_0556 ke se ke ka mo
181_0559 o se abile a le
181_0560 diphofu ha ho sa fihlelwa
181_0561 episcopal church usa
181_0562 v v v ha a
181_0563 ke ya ho batlisisa ka
181_0564 di close corporation di partnership
181_0567 kojwana di mahetleng le ba
181_0568 ho baeletsi ba botegniki ho
181_0569 e fifetse ke mobunyana le
181_0570 ba mo memetse meketengle dikonsareteng
181_0571 a fihlang bokgutlong ngongoreho ya
181_0572 di ja le ho di
181_0577 pope pius
181_0578 leqwetha a sa re o
181_0580 le parole batlatsi ba badulasetulo
181_0581 se ke la ba la
181_0582 rateng le ha ke re
181_0585 e babatsehang e nepahetseng le
181_0588 eo e sa le e
181_0589 basebelletswa batshehetsi jjwalojwalo mekgatlong eo
181_0591 be re be re aha
181_0592 akhaonto eo o ka bolokang
181_0595 ya terre firme ka ho
181_0596 venice film festival
181_0597 memorantamo o ba tsebisangka diphetohotse
181_0598 ha ke mmotsa a re
181_0599 a nwe ho faswa e
181_0601 san diego padres
181_0603 e ahlolwe e be ka
181_0607 tleloupung le mmapeng wa atlelase
181_0608 second continental congress
181_0611 le holane lebelo re sa
181_0613 ne e le ka phirimana
181_0614 la porovense la kgauteng ke
181_0615 omosweu o se o thuntse
181_0616 ne e le makaroff nthwe
181_0618 sekgahla se kahodimo ho sa
181_0620 na le faebara e ka
181_0624 ba dikalaneng ba mo tsebileng
181_0628 tsebiso ofising ya moporemiri di
181_0629 ha le qhibidiha dithabeng ha
181_0631 ho nona mohaditsong a re
181_0634 a mo nyaretse le fensetereng
181_0637 e le dillo le ditsikitlano
181_0638 le ho bitsollakaka bakgotsi ba
181_0639 american quarter horse
181_0643 tjheke e romelwang ka ho
181_0644 e re kg kg kgrr
181_0645 o rwesitsweng ofisiri eo ya
181_0646 a qalelle ho rohakana a
181_0647 ha morayena a ne a
182_0007 feheletsana ba a ithoka ba
182_0014 major league baseball
182_0015 kahobotjha le ntshetspele le ho
182_0016 ne a ba ngoletse horeba
182_0026 ha dipeeletso le ho kwalwa
182_0027 make extensive use
182_0028 international financial institutions
182_0033 le eskom holdings eskom e
182_0034 le ho eketseha ka ho
182_0036 national football conference
182_0037 knights grand cross
182_0040 mahlahahlaha ha a behwemotjha wa
182_0044 declared martial law
182_0046 matshwakatha e ne e le
182_0047 ba hodileng le ho ba
182_0053 roman catholic church
182_0055 australian labor party
182_0059 di butseng di ne di
182_0065 president george
182_0066 ka a ba lekgonono ho
182_0067 e talana e pepileng lebidi
182_0068 ke bo kgotso fatsang ba
182_0072 ao diketsahalo di etsahetseng ka
182_0077 prithvi narayan shah
182_0078 ja le ho di ja
182_0081 hodiswa ho ya ka bofuma
182_0085 francisco bay area
182_0086 ya badimong a patwa ka
182_0087 north germanic languages
182_0092 ho fuputsa le ho lokisetsa
182_0096 ka supina ho bitswa le
182_0098 a ho ahlola ka ho
182_0107 ne a se a phunkgane
182_0111 federal reserve banks
182_0113 ho ba kgetholla le ho
182_0119 le hojane ka mathoko ho
182_0121 civil war broke
182_0123 ne o ke ke wa
182_0128 ke boelane le aubuti thabang
182_0136 booker t big show cena
182_0149 o re ke lebohakgutlana la
182_0150 ntshwabiseng a arabella ka ho
182_0151 central american countries
182_0152 president john
182_0153 ke ha e le ho
182_0154 ke se iphumane ke llela
182_0157 ditabatv e nkilenako eo re
182_0158 ho so be le ba
182_0159 re ne be re se
182_0160 ya mokomeshenara o ka botsa
182_0161 el nino e e fihlelle
182_0163 ke fetwa ke lift ka
182_0165 a ka a o tshwarela
182_0166 a phomolo ya dikolo a
182_0167 blessed virgin mary
182_0168 o ne a sa utlwisise
182_0169 waho re tataisa ha re
182_0174 se setala ha e nnqwe
182_0175 e ka emiswa ya hlakolwa
182_0176 ancient greek philosophers
182_0179 empire state building
182_0182 kgutlelang mahae e ne e
182_0184 ka kenwa ke lefuba ho
182_0188 ho sejura le le se
182_0189 dipehelano ha e ba di
182_0194 ho na le ya ho
182_0198 ya ho theha le ho
182_0200 le seburu di qadileng ka
182_0201 nyora le ntshotla le ntlhokisa
182_0202 a ke ke a angwa
182_0203 bathong ba qhwadileng le tshebeletsong
182_0206 lebenkeleng la fenetjhara o teane
182_0207 le bonkgono le bontatemoholo a
182_0208 a supileng ha a kopanngwa
182_0214 ke a di utlwa tseo
182_0219 ke ne ke le sefofu
182_0220 eo ho mofuputsi ha mmofuputsi
182_0225 phahletse ra ba ra mo
182_0226 ya profensi ya transvaal e
182_0227 re if diplomacy fails then
182_0228 tsengata di a phutholoha ha
182_0229 le dintlha tse e tshehetsang
182_0233 ne e ye e re
182_0235 ya ho transferwa ha sekepebakeng
182_0236 e le ho kgelekgetheha ha
182_0240 le ho ngongoreha ho bebofatsa
182_0246 bo senolo mefehelo ya mophethwa
182_0249 american civil war
182_0250 ha o ie ditsietsing o
182_0254 ha o a phuthuloha le
182_0256 southwestern united states
182_0260 ka ha di ne di
182_0263 dikhompeuta theepa ya odiyo theepa
182_0265 qaqa ha a phehella ho
182_0268 a be a tena bolousu
182_0269 le hlomolla ho se ya
182_0271 minister tony blair
182_0275 ha e felle mono ba
182_0281 ha ba sa itheka morwalo
182_0284 o re ho thweng na
182_0285 kgokahanong ya inthanethe ha ho
182_0294 ka ho hlohlotswa ho honyenyane
182_0298 mo kgesa ba a mo
182_0299 modern standard arabic
182_0300 ho cbrnm e ke ke
182_0301 snake river plain
182_0307 bigeye tuna southern bluefin tuna
182_0312 pope paul
182_0314 sa tshibollo morerong wa ka
182_0319 bofe bo qobellwang ke bili
182_0324 o ne a se rekelwe
182_0330 ha a sa di ja
182_0332 sa heso ke ne ke
182_0333 vector space
182_0335 greek cypriot area
182_0337 b ya e le lehokaleamanyi
182_0345 tahwa ha a na tlhompho
182_0347 re se re sa phele
182_0348 ha se foforeha dipalesa ha
182_0350 independent complaints directorate ha o
182_0351 afghan national army
182_0354 kheri matswai a natefisang pepere
182_0355 le ke ke la amohuwa
182_0356 ne a ye a utlwele
182_0373 lebotho la sepakapakeng la afrikaborwa
182_0375 sir harry warden sir harry
182_0380 ee bo ne bo methwe
182_0382 ya akhauntu e kopanngweng ho
182_0386 e mathisang le sepeiti di
182_0393 di mathuleng a ho finyella
182_0394 ha ho kwae koomeng ho
182_0398 partial differential equations
182_0400 e le sekgukhuni o ne
182_0409 ke tshwanetseng ho ya ho
182_0417 kereiting ho ya ho e
182_0419 le finnweng lefito o madimabe
182_0432 red blood cells
182_0433 leshome le metso e mmedi
182_0437 john von neumann
182_0440 a e ka ballwang ho
182_0445 calcium le phosphorus e ka
182_0446 tieho ho ya ka balanse
182_0448 ya ho ingodisetsa ho vouta
182_0449 ho ruta le ho ithuta
182_0450 lefellwang ho the director general
182_0451 o ka tlohella ho mathakaka
182_0461 kennedy space center
182_0463 o le kgethong ya sapphire
182_0464 o beilweng ho fa dipehelo
182_0467 pampitshana eo e be se
182_0470 rational choice theory
182_0473 a behwe ha a behwe
182_0481 boikgohomoso le ditlontlollo re ka
182_0482 ho ya tiisetsa le ho
182_0487 adriaan van wyk le mof
182_0488 ho fanyehwa le ho kgaotswa
182_0489 ditumelo borui tshebedisano le diqhwebeshano
182_0496 western classical music
182_0498 ha ke a tlela ho
182_0500 ya databeise e ka sebediswa
182_0502 e ka nnang ya unwa
182_0504 osama bin laden
182_0509 natural law party
182_0511 chinese civil war
182_0513 kgutlele ho sera sa ka
182_0515 makala a makgotla a dinyewe
182_0516 ho ntahla ke le mokana
182_0517 e latetswe le ha e
182_0519 areng o ja monakaladi wa
182_0520 ho ahlola ka ho hirwa
182_0524 martin luther king
182_0525 e o alafang e letotong
182_0532 ho ke ke ha qojwa
182_0533 ke o bapala ke be
182_0535 royal air force
182_0538 motla o tutswe wa jeremane
182_0539 o be o sehelle mahlalosi
182_0540 accident statistical system samrass o
182_0541 e qethohile edumella matswejana ho
182_0542 o se a le ho
182_0543 bolokolohi le ho ikutlwahatsa ka
182_0544 bohlokwahadi ya ho sebeletswa ka
182_0546 le tshwerweng ha e le
182_0547 dikwari le ho ripitlwa ha
182_0549 ho ya kaboholo ieboleng ba
182_0551 be o mo lakaletse mahlohonolo
182_0552 ke ho re ba bojwalane
182_0553 professional baseball teams
182_0554 fact date june
182_0559 ha ho se ho kgethuwe
182_0560 ka hitara ka ha e
182_0561 c felehetswe ke tjheletana ya
182_0562 bo fihlellwang habobebe ka ho
182_0565 kokoroha a saretswe ha mmuelli
182_0566 o ne a sa itlwe
182_0568 e qadile ho o tshwenya
182_0570 ke sehlopha sa baprofeshenale ba
182_0572 holy roman emperors
182_0580 states environmental protection
182_0581 cold war era
182_0583 los angeles county
182_0584 ne a ye a kgonye
182_0585 ba se ikutlwe ba phahametse
182_0587 ke se ke o atameditse
182_0588 o itjelletse kgera o tletleba
182_0589 ka ho phahamela ho hlwibila
182_0590 a se a sa ye
182_0592 ho re bajwalo ke ba
182_0593 swiss german dialects
182_0594 ditho ya inthanete member online
182_0597 ho thehilwe ho arolwa ha
182_0599 qetelletse a se a sa
182_0603 battery park city
182_0605 ke hle ke o jwetse
182_0606 ke futswela bohobe ka menyepetsi
182_0607 ke enwa o se a
182_0609 russian orthodox church
182_0613 gravitational potential energy
182_0616 ka online lefatsheng lohle ka
182_0617 ya buka eo o ithutileng
182_0619 party united states
182_0620 eo nalane le jokorafi di
182_0621 late twentieth centuryodowska curie
182_0622 geologic time scale
182_0625 tb e tsohileng ba ka
182_0626 operation enduring freedom
182_0627 mmathulare hammoho le qaka eo
182_0629 sa kgotsofatseng ya cjs ha
182_0630 a ho enta le ho
182_0631 states district court
182_0633 ha ho na makgala a
182_0635 tswekere ya illovo e tshweu
182_0637 le ha ho se ho
182_0640 box office success
182_0641 ho borithane ho ba ka
182_0642 ke iphetola setshehisa sa rammolotsi
182_0643 re o fiela phaposi ya
182_0645 united states supreme
182_0652 ke tjhefo e kwaeng e
182_0657 bakae ba amehang tsamaisong ya
182_0658 president franklin
183_0002 e lefiswang le ha ho
183_0003 nakanaka le masiu ke ho
183_0011 average annual temperature
183_0012 partially ordered set
183_0016 world chess championship
183_0019 le qhalana ha a busetswa
183_0021 ka ya poropaganda le dipapatso
183_0023 ho bayoloji le khemistri ho
183_0026 le foforehang la thajana e
183_0027 la ditshenyehelo le hlahisang ditlhoko
183_0033 ya bohalev o ne a
183_0035 mokgosi marulelong e be le
183_0037 ha e holelwe ka ho
183_0038 e meputswa ho rwetseng diborele
183_0039 johannesburg le durban le polokwane
183_0040 board of trustees bot le
183_0043 ya mahaeng e na le
183_0047 akgaruma ka ho kgena ho
183_0048 a re two two umthetho
183_0049 university college london
183_0053 e bodutu ke tsullung ya
183_0054 human genome project
183_0059 o tshehisa ho phoqa hahaha
183_0061 le ho tlatswa ha dikgeo
183_0062 received mixed reviews
183_0074 page history link
183_0079 peheletso e lefilwe ya ho
183_0083 se ke ha tsujwa ho
183_0085 o ke o ntlhalosetse ka
183_0086 sa pampitshana eo e be
183_0087 pope julius
183_0090 di nonne di taboha a
183_0091 early modern period
183_0092 roman catholic saints
183_0096 e nolofetse ho ba bobebe
183_0100 cumulative distribution function
183_0101 total land area
183_0103 anglo le bhp billiton di
183_0104 ya ho tshwarwa ka ho
183_0116 wa diteboho ho ba ka
183_0118 ya holelang moetlong ha a
183_0119 tokomaneng ya setatemente sa kharikhulamo
183_0120 globe film winners
183_0125 a di utlwileng ka ho
183_0132 official seed testing station ba
183_0134 bolaodi ba phallo ya dinyewe
183_0139 e rejistarilweng le e lefeletsweng
183_0144 a ba a mo tshepisa
183_0145 french national assembly
183_0149 ralehlatsa o ne a robile
183_0154 bahlahlobuwa ba kgothaletswa ho ba
183_0155 ha se bokopi ke ho
183_0158 security council resolution
183_0160 ha nehelano e radilwe ka
183_0162 air national guard
183_0163 american football team
183_0164 ke ke a hanelwa ho
183_0166 ka meqebelo le disontaha ho
183_0167 ha le kgethe morui ho
183_0168 ke se ke touta ka
183_0169 ya ejamethinya o ne a
183_0171 o se o emisitse rakgadia
183_0172 ha re bueng ka a
183_0177 sa tsuonyana ha se hlomolephakwe
183_0179 e iswe ho ba baholo
183_0183 bo se fete leqephe ha
183_0187 afidaviti a ka ya ho
183_0189 la mo swetsa la mo
183_0190 ba babedi bao re ka
183_0191 se ba bonang e le
183_0194 le se le motshela ka
183_0198 wa lehae o na le
183_0199 le nkgolwe ha ke re
183_0202 a re ke moshwa bo
183_0207 special administrative region
183_0208 di ne ditabohile e le
183_0209 ba itulela matlong a rdp
183_0215 le ha e se wa
183_0216 bela di a hlweba madiba
183_0218 ho se ho bile ho
183_0219 fact date october
183_0221 ha bathobabaholo ba ka ba
183_0222 chinese martial arts
183_0235 ne se sa mo kgese
183_0237 itahla a so ye le
183_0240 re ya ka nnqeng e
183_0241 ka metswako e fapafapaneng ya
183_0245 television series debuts
183_0246 bafta winners people
183_0247 ya ho fa medimo dimpho
183_0252 a mokokotlo neural tube defects
183_0258 toronto blue jays
183_0263 e jehang e le ka
183_0265 ho ba dihlabi maphelong a
183_0266 policy on financial awards pfa
183_0271 ne a sa le monnyane
183_0273 civil liberties union
183_0276 ya netweke ya prime cure
183_0277 k h r pilisi sirapa
183_0278 e ya faelwa e be
183_0281 r ho se be le
183_0285 wa kobolelwa ho iketla ho
183_0286 average household size
183_0289 ho bahloki ba dimilione ba
183_0293 big bang theory
183_0299 na le ho re o
183_0300 eastern orthodox christians
183_0304 ahuwe ka makote se le
183_0305 le ho ja phepo e
183_0307 reverse polish notation
183_0308 ya ditho ya inthanete member
183_0312 ba e na le dinqalo
183_0315 riphaboliki le ha ho le
183_0316 atjhetjha ha se be le
183_0319 wa ka abolela ha ho
183_0320 ha a tloswe ha a
183_0321 wa bolelele bo boletsweng ka
183_0324 real gdp growth
183_0325 ha moqosuwa a hloleha ho
183_0326 mmokelletsi ya lefshwang khomoshene ya
183_0327 ke se ke itshwetse mokgubu
183_0330 ji go roc sichi haj
183_0335 bo tsanyaola modidietsane bare mmopi
183_0336 le utswitsweng jj le b
183_0339 qalehong ya kereite e ka
183_0352 history important documentation
183_0368 mo eletsa ka ho re
183_0370 principal ideal domain
183_0371 hlophisitswe ka ho ya ka
183_0373 air force bases
183_0378 ba ke ba hahlwe ke
183_0380 office administration ka ngollano ha
183_0382 diseili faeba tlelase patsi le
183_0386 malapa a tjamelane le diphepetso
183_0387 major political parties
183_0392 phomolo le ka tjhentjhana le
183_0395 cardiovascular disease deaths
183_0398 le ho itebala ho re
183_0410 a mo tlweba ho ya
183_0411 exclusive economic zone
183_0413 ka kuno e lekanyeditsweng e
183_0416 e sa potoloheng e utlwisisehang
183_0430 ngolle posekarete o mo thoholetse
183_0433 ho bentsha tapeiti o a
183_0436 belaellwang a utswitse diruuwa jj
183_0437 elections took place
183_0439 a le abilweng ke palamente
183_0440 ke be ke o tlatsela
183_0441 ba ho ngodisa bokudi ba
183_0452 na le diotlammele le ditlheferetsi
183_0453 o ithutile ho le ho
183_0461 na ha ke re ho
183_0468 e se e qhalane e
183_0471 animated television series
183_0474 fact date january
183_0476 lepetjo ke mobolelo o mokgutshwane
183_0479 eastern orthodox church
183_0483 bolokwe di lokiswe le ho
183_0485 ya meputso eo ho ka
183_0492 le terata e hoketsweng makapanyana
183_0494 nyontse a tenehile a sa
183_0497 ha di tlo phatlalatswa ho
183_0509 e ne e ipoqa seretseng
183_0511 e ne e le qohollehile
183_0512 central processing unit
183_0513 ee na o ka re
183_0525 o se o ikentse kgodumodumo
183_0532 ba e tobileng mehatong ya
183_0534 high school students
183_0536 united states environmental
183_0541 e le afeng moikopedi a
183_0542 e se e le dithungthung
183_0546 boshodu bo ne bo le
183_0554 e ne e ka ratwa
183_0557 kelly o ne o na
183_0559 re a phahame a ke
183_0565 toropong e ne e le
183_0567 kokosile selepe a loloma ke
183_0569 eo e ne e jellwa
183_0570 ka baka la ho kula
183_0571 maintains diplomatic relations
183_0572 french revolutionary wars
183_0574 science fiction films
183_0576 be o le modudi wa
183_0579 registrar of animal improvement e
183_0580 metal musical groups
183_0581 ha e le ho kgutlela
183_0589 e a thibelwa ka ho
183_0593 e se bo kgodisang hakaalo
183_0601 a be a yo re
183_0604 second world war
183_0608 oo mokobobo o na le
183_0609 calluses ho di vocal cord
183_0614 ke dule ke kgwabitlwa ke
183_0615 a e i o u
183_0619 le ka tjheletevv raboditse o
183_0621 boemedi ao ho nehelanweng ka
183_0622 he di ne di ye
183_0635 ho ba eo rejistra a
183_0639 kemohlolohadi a ke ke a
183_0643 ya authority to apply e
183_0645 metjhini ya othomatiki e sa
183_0647 a kgonneng ho inyalanya le
183_0649 ke ne ke se na
183_0656 old catholic church
183_0657 turkish army occupied
183_0658 o sebete sa ho beha
183_0659 ba motenya bo ka fokotswa
183_0662 bidibidika a be a yo
183_0663 graphical user interfaces
183_0664 indus valley civilization
183_0665 ja o le tala ha
183_0666 best foreign language
183_0669 voutu e eketsang voutu eo
183_0670 dikwankwetla bahale ba furallwa kebasadi
183_0672 american civil liberties
183_0679 ho ya ka ka kglofalo
183_0681 se itshwenye le ho itshwenya
183_0682 states marine corps
183_0687 le mo imela le ho
183_0689 buwa le boraditaba meqoqo e
183_0693 nobel prize winners
183_0694 ho se ho apolwa ho
183_0700 se re a tenehe ho
183_0703 le ho tshwaratshwara ho sa
183_0723 le phahameng ya boipiletso ho
183_0732 shuu ha ke a kgathala
183_0735 teboho e be hempe e
183_0737 league baseball teams
183_0750 microwave radio relay
183_0765 high blood pressure
183_0767 kgama a arohane ie dibakiso
183_0769 ke e kgahlisang e kgolwehang
183_0774 ka ngollano le yunivesithi ya
183_0785 phousetara e e hohelang e
183_0801 ke o tsholele mabinabine a
183_0807 make extensive use
183_0808 international financial institutions
183_0810 ne a na le leqeba
183_0813 le eskom holdings eskom e
183_0817 knights grand cross
183_0820 mahlahahlaha ha a behwemotjha wa
183_0822 ho hatella ho latelwa ha
183_0823 sa pataleng kgwebong e fe
183_0824 declared martial law
183_0825 home run record
183_0826 matshwakatha e ne e le
183_0827 ba hodileng le ho ba
183_0832 a phedisano a shebane le
183_0833 roman catholic church
183_0835 australian labor party
183_0839 di butseng di ne di
183_0841 le le borethe letsheare lohle
183_0844 ke kgoeletso e sebedisetswang ho
183_0857 prithvi narayan shah
183_0860 o ye a re ha
183_0862 ya ayodine e qetwa ke
183_0865 francisco bay area
183_0867 north germanic languages
183_0875 phiri e se e jele
183_0885 kgefutso ye metsotswana e se
183_0886 united states court
183_0887 ne a se a phunkgane
183_0890 la mo re he a
183_0891 federal reserve banks
183_0893 ho ba kgetholla le ho
183_0895 ha o dulellane le ho
183_0901 civil war broke
183_0902 e phethahale ho ya ka
183_0904 o ne a kwalletswe bosiung
183_0912 ka hoeletsa ha se be
183_0913 eja masapo a hlooho ke
183_0915 koma ha e ke e
183_0916 booker t big show cena
183_0917 mohlanka ya ka sehloohong wa
183_0927 le nokaena eo ke e
183_0932 president john
183_0934 ke se iphumane ke llela
183_0938 ho so be le ba
183_0946 a phomolo ya dikolo a
183_0947 blessed virgin mary
183_0948 o ne a sa utlwisise
183_0952 rarollla diteihiso le ho ntsetsa
183_0954 se setala ha e nnqwe
183_0956 ancient greek philosophers
183_0958 ka re sethothokisi se ngotse
183_0959 empire state building
183_0962 kgutlelang mahae e ne e
183_0963 ho qoba le ho tlola
183_0964 ka kenwa ke lefuba ho
183_0965 ya ho laola le ho
183_0968 ho sejura le le se
183_0971 ba sa bapaleng ho ba
183_0974 ho na le ya ho
183_0975 a se susumetswe ke ekng
183_0978 ya ho theha le ho
183_0980 le seburu di qadileng ka
183_0987 le bonkgono le bontatemoholo a
183_0990 e hlomamisitse di nlb ho
183_0993 le ka ho ikutlwahatsa ka
183_0994 ke a di utlwa tseo
183_0999 ke ne ke le sefofu
183_1004 red sea coast
183_1007 re if diplomacy fails then
183_1010 ba kgahlenyetswa ke monko o
183_1013 ne e ye e re
183_1016 e le ho kgelekgetheha ha
183_1020 le ho ngongoreha ho bebofatsa
183_1021 a fihlang ho a mahlano
183_1024 ke hlole meleko e ntobileng
183_1029 american civil war
183_1032 e ditshila ho ntatae he
183_1038 ka ha ho se ho
183_1039 dihuweng o hlotswe o a
183_1042 padileng ke tebello o a
183_1043 dikhompeuta theepa ya odiyo theepa
183_1045 qaqa ha a phehella ho
183_1048 a be a tena bolousu
183_1050 bobenya kekgalefo ya re ha
183_1051 minister tony blair
183_1055 ha e felle mono ba
183_1062 ha re a tshwanela ho
183_1063 le malepa ba fedisana kadithipa
183_1065 kgokahanong ya inthanethe ha ho
183_1068 a ya le maidiidi ha
183_1069 a mo otla selefounu le
183_1070 batleng ho jarelwa mefokolo ke
183_1075 tshebediso ya matshwao a puo
183_1079 ha ho ne ho ka
183_1085 states army soldiers
183_1089 mphe semeremere le tshea ke
183_1090 ya panama ya re pheu
183_1091 pepeneng le ho se be
183_1092 e le lekunutu ho inkunela
183_1095 le leng le le leng
183_1099 wa tlelapo ya lantjhe b
183_1101 ho sitswa ho hlohonolofatswa ka
183_1109 ho ka maiteko a ho
183_1113 na ke meaoho le ditsha
183_1119 o ne a rapela ha
183_1121 employee assistance programme eap ka
183_1124 major league history
183_1125 kaale e o ngongorehisang ka
183_1126 reactive oxygen species
183_1127 ba ka ke iteletse ho
183_1136 ya ditoropo ho kopanyeletsa le
183_1141 le tjhabile le monatjana ho
183_1143 sa dumele ho ka fefolwa
183_1147 iowa state university
183_1151 ha e le ho teela
183_1152 hohlola le ho ba le
183_1157 wa mahindu ho hatellwa difeleng
183_1164 e na le histori e
183_1166 di apostille certificate ke ditifikeiti
183_1167 le ha barata ho nkeletsa
183_1168 le manyofonyofo a swabisang tsama
183_1169 mathang ka tlase ho lefatshe
183_1170 ho boetapele ba mokga o
183_1176 ha ke re fara ho
183_1177 ne a sa dumellane le
183_1178 chinese communist party
183_1179 ke se ke ka mo
183_1182 o se abile a le
183_1184 episcopal church usa
183_1187 di close corporation di partnership
183_1190 kojwana di mahetleng le ba
183_1191 ho baeletsi ba botegniki ho
183_1192 e fifetse ke mobunyana le
183_1194 a fihlang bokgutlong ngongoreho ya
183_1195 di ja le ho di
183_1196 eo ya lehokedi sehella lehokedi
183_1199 ha ke ya ke shebile
183_1200 pope pius
183_1201 leqwetha a sa re o
183_1203 le parole batlatsi ba badulasetulo
183_1209 national historic landmark
183_1218 ya terre firme ka ho
183_1219 venice film festival
183_1221 ha ke mmotsa a re
183_1222 a nwe ho faswa e
183_1224 karabelo ke ha afihla ho
183_1226 bonngwe ka bonngwe haele mafiritshwana
183_1228 ya kgoholeho ya monu ii
183_1229 o mobe o sa rateheng
183_1230 ho ka hlahlojwang le ho
183_1231 ho phahama le ho theoha
183_1235 ke carlos alberto parreira le
183_1240 le ho ruruha ha manonyeletso
183_1242 ohio state university
183_1244 bo menomasweu ba o bolayang
183_1245 mananyetsa o ne a ikgakantse
183_1246 ka kotloloho le ho kgutliswa
183_1249 riemann zeta function
183_1251 wa ho fepa le ho
183_1253 o mula nthwane ya se
183_1256 dikharikhulamo di na le ho
183_1257 ba ho hlabolla botsebi ba
183_1258 ba a kwetse nqi ba
183_1262 southeast asian nations
183_1267 mo kgothatsang le ho mo
183_1269 e se e nkeme maqothe
183_1270 ha o letsetsa healthline o
183_1271 kganyapa o ne a le
183_1272 pepesehile le ho ba tlokotsing
183_1273 actor golden globe
183_1274 largest trading partner
183_1275 ke potele e kgwathwang ka
183_1277 fura la ngwna ke ho
183_1278 average family size
183_1280 ka ha di amana le
183_1289 pokothong ya ka a ba
183_1296 football league
183_1300 ha ho se ho tsepamisitswe
183_1301 ho itsibola ho ba le
183_1303 statistik provisionally valued
183_1310 ka ha e lebisitswe diketsong
183_1312 edgar allan poe
183_1319 milky way galaxy
183_1326 e ne e thehwe ho
183_1327 oo o o nwang o
183_1329 wa bohokedi okgonang le o
183_1330 e le bohlokoha e le
183_1331 kabong ya ditekanyetso le ditaelong
183_1332 mr t a ba a
183_1333 ho lothanwa ba lothuwang ie
183_1334 ha e le ho totoba
183_1335 relatively small number
183_1336 le mepeletotshwano mahlalosonngwe malatodi le
183_1337 ho be le ho se
183_1338 ba seafrika bo hlomptjhwe o
183_1339 a sa ka a robeha
183_1340 boitsebiso ho thibela pepeso e
183_1341 karohano ya ho ya ka
183_1342 ha e bonahale ntlafalong ya
183_1343 wa bodulasetulo ba sadc ho
183_1345 kgwebo e ka thoko ho
183_1346 le se ke la fokodisa
183_1347 ya boipiletso ba ka hare
183_1348 ke haho se ho ropoha
183_1349 late middle ages
183_1350 diphoso le ho e ntlafatsa
183_1352 jang setoto ka lere ka
183_1353 le molaodikakaretso wa ka ho
183_1356 o na le kgwao ka
183_1357 sefate a mo atamela ba
183_1358 a hwehla ka letsoho ho
183_1359 ispia monnafeela a kwetelwe ke
183_1364 ho inkela diqeto ha ba
183_1365 ekasitana le marangrang a dikgokahano
183_1366 ba na le shere e
183_1367 josip broz tito
183_1368 a nkehile mathakeng ao ke
183_1370 ha ho na le menyenyetsi
183_1372 o be mohlodi lengwele le
183_1373 mo jesa ba mo robatsa
183_1374 e hopotseng e sa wele
183_1376 ka phaphosing ba ne ba
183_1377 new york mets
183_1378 boitshepo bo kgotsofatsang ha a
183_1379 papua new guinea
183_1380 ho ka bakela ho feroha
183_1381 potlolomente matsohonga samadula anto epelamoomofatshe
183_1382 dar es salaam
183_1383 e ne e se moitlami
183_1384 malepeng e le bahlokomedi ba
183_1385 a na le phehello ya
183_1386 sa nwajwala tlhase ya pososelo
183_1387 ya boitjhoriso e ne e
183_1388 a se a sa hlomphe
183_1389 a ka nkuwang e le
183_1390 eo a e jetseng ha
183_1393 e le sekgomathiso e se
183_1394 e le nasala nasala o
183_1395 sa re hlahele re bohlale
183_1396 e tshabe ho ba tlohedisa
183_1397 ne e le moqebelo ka
183_1398 ho sebedisetswa ho lekanyetsa diphetho
183_1399 ho ba le boitemohelo ditsong
183_1400 le diphetoho ho ya ka
183_1401 tjheka moriana thoteng ha a
183_1402 ke setlamo sa dilengwa sa
183_1403 eo moradiae a sa lokelengho
183_1406 bothile dinonyana di ipatile dirobeng
183_1407 achievement award winners
183_1408 ke lebohile ho menahane ka
183_1410 ya lebalang moetsuwa ha a
183_1411 a tsebiswe ka boikemisetso ba
183_1412 mekgeng e sa sireletsehang ba
183_1413 ne a se leqhoko a
183_1414 ka kakaretso le c ho
183_1415 american sign language
183_1416 ka ha ho boletswe le
183_1418 ba tshepahalang ba na le
183_1419 sa ye ngakeng o e
183_1420 phatlalatso ya ho lokollwa ditlamong
183_1421 ya ho se itekanele e
183_1422 a ba kadima masenke le
183_1423 o ke ke be wa
183_1424 ha ke re mmao o
183_1425 ke ke a angwa ke
183_1426 e sa le ka madungwadungwana
183_1427 o mo phehletse sefuba sa
183_1428 ya ho tsamaela ho lebeng
183_1429 a ka ba a re
183_1430 a ne a kudiswa ka
183_1431 guano islands act
183_1432 a tsebise b a mehang
183_1433 tshwela tb e ipatileng e
183_1435 tlung eo le e kopanetsweng
183_1436 ba saps criminal record centre
183_1437 e a ko hlo ntjwetse
183_1438 le mamosa e ne e
183_1439 a se a e na
183_1441 wa kelly o ne o
183_1442 biri a re o hlaphola
183_1443 roman catholic priests
183_1444 afidavite e arabang e kentsweng
183_1445 dikgoho botsikwane bo ba qete
183_1446 le re kgethollang le re
183_1447 ha di a behwa ka
183_1448 le ke bothabang o a
183_1449 ya bonna le bosadi ho
183_1450 queen elizabeth
183_1451 emelang le ho di fa
183_1452 le ho bola ha maitshwaro
183_1453 ya homeland ya qwaqwa le
183_1454 lekoteng ho tu o balabala
183_1455 le ba senyehetsweng ke tsonad
183_1456 ba re morwa o bohlile
183_1458 otukang malakabe a maholo a
183_1459 ke ho tlodiswa kgathi ka
183_1460 lekgotla la diphuputso la temo
183_1462 se fofonela se a kopola
183_1463 ho re ha aphela o
183_1464 asian nations asean
184_0001 bowatla ka ho mo letsetsa
184_0004 ya projekte le kananelong e
184_0007 mongata e le wa dijareteng
184_0008 ho ya ka makgoro le
184_0009 science fiction convention
184_0010 se tshwasang dihlapi ke sekepe
184_0011 be ba se ba ho
184_0012 d e le f ba
184_0013 american football conference
184_0014 ba le pin ya ho
184_0015 international labour organization
184_0016 onelopele ya tjhata ya ho
184_0017 burundi comoros sudan haolo ho
184_0018 a hamme e tswele le
184_0019 le be le dikele na
184_0020 gibbs free energy
184_0022 ha o ya ho e
184_0023 a ne a le bodutunyana
184_0024 ka sms sms benefit lookup
184_0027 majwala a le tshosa ka
184_0028 ba matha ka dinkgo ho
184_0029 late eighteenth century
184_0030 ho re a ye le
184_0034 madison square garden
184_0035 ho fopha ho sututsa ho
184_0038 ha ke re re le
184_0042 a qela holeoto o ne
184_0044 basebetsimmohomemorantamo ka tlhokomediso ya ho
184_0046 ka ke ne ke le
184_0047 ka ho lemala o le
184_0050 ha ke e hloke le
184_0057 e lwanela ho ya ho
184_0059 english civil war
184_0061 a ne a sa fihlelwe
184_0062 e le o unneng ka
184_0065 civil class
184_0066 mesi mehudi dikgase le diphofudi
184_0069 ke basebeletsi matloleng a dibenefiti
184_0070 leru le lefubedu t w
184_0071 chief executive officer
184_0074 wa kabo ya mangolo nqf
184_0076 e mehlano ya dilotho ho
184_0079 bane ba hlahelletseng ka mahetla
184_0080 se mo ise yunivesithing o
184_0083 western roman empire
184_0084 o re ho a be
184_0085 phatladitse masedinyaneng dithelevishineng le dibukaneng
184_0087 thupa e kojwa e sa
184_0088 ha o sa se medisa
184_0089 ka ikutlwa ke tlalwa ke
184_0090 e itlhalosa e qadilwe ke
184_0095 na le manyofonyofo a swabisang
184_0096 ho ya ka kutlwisiso ya
184_0097 poho ya mokgerane e ka
184_0099 cite press release
184_0101 o semena o felletseng o
184_0104 sa thapiswake boikaketsi bo kgemang
184_0105 re qhau a mo sudubanyafatshe
184_0106 unrestricted submarine warfare
184_0107 wa thuto le thupello e
184_0108 le ha e na le
184_0110 moepa oo ke tshwanelwang ho
184_0111 ka ha ho ne ho
184_0112 e ho na le methwaela
184_0114 oo le ha a ne
184_0115 pope pius
184_0116 seratswana sa d ha e
184_0117 ba re ha a na
184_0118 ho ithuteng le ho rutweng
184_0119 le adv j de lange
184_0120 ya remittance advice ya nothisi
184_0122 o ka ba wa ya
184_0124 wolf whistled le ho betwa
184_0127 hose phahle makunutu abonaj k
184_0128 le sa tlohe phofung ya
184_0130 inspector of mines ciom ya
184_0131 khompuyuteng a ke ke a
184_0132 kutu ya sefate e le
184_0133 re di etse mohatla kgwiti
184_0136 enngwe a le akgele ka
184_0137 na ba e rutilwe ke
184_0140 hiruwa ha ka potefoliong ya
184_0141 a potlakile le ha re
184_0142 o se tlodise ho ja
184_0143 le ho tlanya typing o
184_0144 tsejwalo a ba a re
184_0145 tiehiso ya ho phethela dikarolo
184_0146 ke tshabo tshabo ya ditlamorao
184_0147 ya mmofu e kgonya mokgwabong
184_0149 mixed martial arts
184_0151 ditshisinyo di ka kgonahala ha
184_0152 camp david accords
184_0153 o ne a re o
184_0155 olato e ne e le
184_0156 sepheyo ke ho nyalanya boitsebelo
184_0157 e ya hatiswa e saenwe
184_0158 ba qelelwa dinthong ha ba
184_0159 union member economies
184_0160 ya a a nkellang hloohong
184_0161 nthe hee ka ka ka
184_0162 di so ka di rekiswa
184_0164 wa thoteng tlhophollo le tlhaloso
184_0167 o ne o le lelele
184_0168 a ka monyeha letlalong ka
184_0170 ho ya ditameneng shu ha
184_0171 a sa kgarumemmakarabelo motsotsong oo
184_0172 le mmamoruti ya mmoledi ke
184_0174 ka ho ya moketjaneng ono
184_0175 le ha ho qaqisitswe ka
184_0176 o ke ke wa etsahala
184_0177 ya tsitsinngwa ke diheshana bomafisa
184_0178 mekotla ya mashala ka veneng
184_0179 na le boipelaetso bo isteng
184_0180 d ho hokahanya le ho
184_0181 etshweu e lebanta le letsho
184_0183 ho bahlokomedi le pontshahatso ya
184_0184 di ka qhalakanngwa le di
184_0185 ba chikano ya sireletsang le
184_0186 letona ka tumellano le letona
184_0187 khampani ya ba mmalwa e
184_0188 wena moetapele wa setjhaba le
184_0189 kgele a tsoha a tlola
184_0190 ya emia e na le
184_0191 eo ho ne ho sa
184_0192 ho bapiswa le ho a
184_0193 ha ba le phokotseho e
184_0194 le ho re kumela ka
184_0195 sa le ka madungwadungwa ke
184_0197 e dumelletswe ho ka eketsa
184_0198 ha re ne re ilo
184_0199 le ho phuthollwa ka bo
184_0201 o ne a ikete ho
184_0204 ne a teane le ditshita
184_0205 public international law
184_0206 international criminal court
184_0207 nyamela ho ba ntidi ha
184_0208 hee ke re o nkgitlile
184_0209 mmetla o kgola o e
184_0210 o lakatsa ho tsebiswa le
184_0211 united states coast
184_0212 le tjhaba le dikela ba
184_0213 ya tuma ka ho reketla
184_0214 ne e le e ke
184_0215 dipuo ho phatlalatsa le ho
184_0216 kgauhelo e ne e le
184_0217 israeli prime minister
184_0218 haebe o kile wa fumana
184_0219 ka dinkgo ho ya sedibeng
184_0220 sa rena le ho rena
184_0221 moro kgotla ha o okolwe
184_0222 ho se sireletsehe tshwaetsong ya
184_0223 o na le mosadi le
184_0224 ke yang ke ne ke
184_0225 le kwae ke motswako wa
184_0227 a le mahlomoleng a ho
184_0229 eo ho bafuputsi ba ikgethileng
184_0231 o ne a mo susumelletsa
184_0232 re thobela diponono di thobelwa
184_0233 le ho fepela basebedisi ba
184_0234 ba e lahlele lebokoseng la
184_0235 ho ba le dvt ba
184_0236 o shobile a o entsemotloutlwana
184_0237 le sireletswe le ho notlellwa
184_0239 la ho ya le ho
184_0240 di ne di sa mo
184_0241 sekgutshwane sa akha onte ya
184_0242 boitjaro ho tshepahala ha botsamaisi
184_0243 ke ne ke sa mmone
184_0244 se makatsang ke ho re
184_0245 ho nyaroha e e bo
184_0247 le kgelohang tokelong ya bohato
184_0248 e pakuweng ho otsjet ejiwe
184_0250 ya ka etsang mahlabisadihlong a
184_0251 central african republic
184_0252 le ha e ka ba
184_0253 kgamahaholo o neabona e lentho
184_0255 eo a qetileng matsatsitsatsi a
184_0256 ho tu ke sitwa ho
184_0257 ya mmokelli eo wa dikoloto
184_0258 ntlokgolo ya icd e pretoria
184_0260 ha o ne o re
184_0261 iv na ho na le
184_0262 e ka bolokwang e tswella
184_0263 o se a tsohella ha
184_0267 a epa pitso ya ba
184_0268 digital signal processing
184_0269 le lengata ho ya ka
184_0270 letsema o ne a se
184_0271 le e qhwaelwang sefubeng kgau
184_0272 ha o a dumellwa ho
184_0273 memorandamo le articles of association
184_0275 ya matarapane o ne a
184_0277 mo apese ka mapheo manong
184_0278 ho shatilefensetereng ha re tswaa
184_0279 sa fase ntja eo ya
184_0280 se omeletseng se sa fumaneng
184_0281 pedi borarong ya mebuso eo
184_0282 le ho lokisetsa ho tsebahatsa
184_0283 di ka nyoloha ha e
184_0285 ya ill e na le
184_0286 e thehilweng bodumeding le dihlopha
184_0287 ya referense eo o e
184_0288 ho re ba re kwetletse
184_0289 ho ya bosoleng ho ya
184_0290 deedsweb ka ha ho na
184_0291 ho ka iteangwang le ba
184_0292 ba re ke ho qetello
184_0293 aparetseng e ye e re
184_0294 ya momahanyo ya dikgokahanyo le
184_0295 a se hlokang bophelong ba
184_0296 sa ka ka ba le
184_0297 a lekanang mahlakoreng a mabedi
184_0298 na ntwa e ka fetelletsang
184_0300 ka ho ya ka minerale
184_0301 a se a boletse a
184_0303 ekare re diphoqo ha re
184_0304 ke diyanokeng di bapile le
184_0306 ho ya ka pilir o
184_0307 mmasepala o ne a sisintse
184_0308 dithunya le ditanka le difofane
184_0309 nehawu le psa e le
184_0312 award winning authors
184_0313 ha e a kgotsosofala ngwaneso
184_0314 a ka masakaneng a ngolwe
184_0316 treaty organization nato
184_0317 ha e re e a
184_0318 medicine price list mpl le
184_0319 di ne di sa susumeletswa
184_0321 ya mahaeng le maphelo a
184_0322 ya pa role ya ho
184_0323 di rarollwa o se ke
184_0324 world trade organization
184_0325 sethetsabadisana ha ho bolelwa banana
184_0326 le dipelaelo ka yonamabapi le
184_0327 e monyenyaneyena o ne a
184_0328 ho se be lengwana ya
184_0329 bahale ba furallwa kebasadi ho
184_0330 e lebi sang tlhalohanyong ya
184_0331 ako lese ho itshela ka
184_0332 k h r mapenshenara le
184_0335 o a thatafallwa ha a
184_0336 ka nqeng ya ho kwetelwa
184_0338 esele ke a o nyonya
184_0339 a mmatle a mo tlise
184_0340 o ne a sa robale
184_0341 dikhabinete ho betla mapolanka ho
184_0342 mthethwa o ne a sa
184_0343 cup winners cup
184_0344 ha o sa re natsa
184_0345 katlehong kgatelopele e ke ke
184_0346 leaho e ne e le
184_0347 o be le dikamang ka
184_0349 mo re qa kgetlo la
184_0350 nolofatsa le ha ho le
184_0351 ha mokomshenara a se a
184_0352 sa sebetseng iteanye le ba
184_0353 royal australian navy
184_0354 o feleheditsweng kemoya obatang le
184_0355 ba arohana mmileng o fetang
184_0357 ke re ha ke no
184_0358 ho tlolapele ha re sa
184_0359 bohloko ka ho fetisisa ke
184_0360 ba sa ntsaneng ba botsana
184_0361 ke sa notlela o sa
184_0362 ha se mara ha se
184_0364 mosadimoholo mmadiepollo o ne a
184_0365 my nou te doen staan
184_0366 a veke ho sa sejetswe
184_0367 ho natefelwa ke dingolwa e
184_0368 e so arabelwe ka ho
184_0369 joint initiative on priority skills
184_0370 e a amoheleha ya ho
184_0371 ha o hlajwe ke dihlong
184_0372 malomafodisa o ne a sa
184_0373 ntumella ha ke re o
184_0374 tshwaetswa ke hiv le aids
184_0375 mohloding le ha e le
184_0377 r j r masiea e
184_0378 ba ne ba fetotswe ke
184_0379 northeastern united states
184_0381 le ha e le lesobanyana
184_0382 rejisetara le sehalo di sebedisitswe
184_0383 president theodore roosevelt
184_0384 a sa tahwa o ne
184_0385 e ne e se lekwala
184_0386 ho re na e be
184_0387 balekane ba o r tambo
184_0388 kenang toropong e ne e
184_0389 mathakang ba rongwa ba hlatswakang
184_0390 ya ka e duma ditshepe
184_0391 dithupello le ho tlatsetsa ditataisong
184_0392 le ho qadisa diprojeke ke
184_0393 ha ho ka ke ha
184_0394 ha o so ka o
184_0395 a sa tsebenthoeo a e
184_0396 o a bonahaletsa o ke
184_0397 oo ho wona o hlahisang
184_0398 e sootho e mabanta a
184_0399 ngola ka mongolo o makgethe
184_0400 inyatsa ha e sa le
184_0401 a ho kholomo a le
184_0402 ha o le manganganyanatjena ke
184_0403 ha ba le kgutso ka
184_0404 british east india
184_0405 a ho qeka le ho
184_0406 o ne a re file
184_0407 ha bofutsana bo e ja
184_0408 mo hauhela a re ho
184_0409 electron degeneracy pressure
184_0410 e e ka re ke
184_0411 a fotse le ha ho
184_0412 phetwa e be mmohi o
184_0413 e na le ho re
184_0414 mosha o ne a ba
184_0415 o ne a dutse ka
184_0416 na e fela o arabile
184_0417 wa ikahela ka ho sa
184_0418 rugby union team
184_0419 a o fe resiti e
184_0420 ba ya dikolong ba hlometse
184_0424 kantle e ne e le
184_0425 re a thaba ha ho
184_0427 ho le ha e le
184_0428 sa tshepahaleng ke tshokelo e
184_0429 o ahlame o mo tonetse
184_0430 a timellwang le ke ho
184_0431 ha a ka a arabela
184_0432 e ye e be ka
184_0433 nbotsa ho re na ke
184_0434 saennweng le ho tempuwa ke
184_0435 dithoko di atisang ho ba
184_0437 ho ba le mehala ya
184_0438 maholo a ditsu mahetla le
184_0439 ke ne ke ipona ke
184_0440 internet service provider
184_0441 didumatshwano le mepeletotshwano mahlalosonngwe malatodi
184_0442 le ananela botebong ba maikut
184_0443 la poraevete ke na dipuisanong
184_0444 hong ho dumella mmadi ho
184_0445 o e na le letshollo
184_0447 weleng mekgeng e hlalositsweng ka
184_0448 dikoduwa le matsholo a ho
184_0449 le ha ke na le
184_0451 ha ho ne ho itswe
184_0452 puseletso e se kenyel letsang
184_0453 hule pay as you earn
184_0454 leke ho mo nyokola ha
184_0455 ho se ho se na
184_0456 b le ho ya c
184_0457 ka bomadimabe khampane ya boabiele
184_0458 a be a mo kgothaletse
184_0459 ba ne ba le bafubedi
184_0460 ha a mo kgalemella mekgwanyana
184_0461 be le tsamaisano le bili
184_0462 ke ne ke re ho
184_0463 be di mela manaka bo
184_0464 di ka be di thibetswe
184_0465 ho ka ama sabsidi ya
184_0466 ho balehaempa ba mo lelekisa
184_0467 memorial park cemetery
184_0468 botoro le tjhisi mabejana difeme
184_0469 e ne e le bosiu
184_0470 a ne a le siyo
184_0472 be borapolasi ba kamoso o
184_0475 re na ke a mo
184_0476 le lefubedu t w d
184_0477 la botahwa le se le
184_0478 a fetang le a sefefo
184_0479 nwabeleditse ba habile kalaneng ha
184_0480 ke ha ho qalwa ka
184_0481 o re ntaramane ee ya
184_0482 ba nyetseng ke mampetje ba
184_0483 ra o tlohela o sa
184_0485 ka botenya ho ya ka
184_0486 ya ka le ba bohading
184_0487 ya cashier e be o
184_0488 re ha o sa mo
184_0489 e le sephoko a kgelekenya
184_0490 be wa ba wa mo
184_0491 le ho se hlomphehe ha
184_0492 roman catholic priest
184_0493 failed verification date
184_0494 ditoloko le ho theheng ditataiso
184_0495 ba ho elellwa makgabane le
184_0496 la nteka la nkenya ditabeng
184_0497 ka ho re o mo
184_0499 ka se tshwarwe ka ho
184_0501 balehang ho bebofaletsa motshwai ho
184_0503 re ditaaso di tshela mmila
184_0506 alexander graham bell
184_0508 v v mmapelepele e ne
184_0509 theotsweng ke moadimi le ho
184_0510 ke ha a le haufiufi
184_0512 ruuwa le ho laolwa ka
184_0513 e se e kgutletse ka
184_0514 o ne a kgannwa ke
184_0515 arohana tjeee se e le
184_0516 tlilo kopa mohope wa metsi
184_0517 wa ntena e sa le
184_0518 mamelang ithuteng ho ithaopola ho
184_0519 ka ke se ke le
184_0520 le ho ba yuropa le
184_0521 wa lerama la motswala wa
184_0522 o hlatsa le ha o
184_0523 natural history museum
184_0524 amino acid sequence
184_0526 be a se a qwaketsana
184_0527 o moseho mawatle mmekgaitsedi ya
184_0528 ke la ba la nteka
184_0530 e ya hola le ho
184_0532 ho e nolofatsa le ha
184_0533 ratane mmebadisana ba ne ba
184_0534 le ha ho lekwa ho
184_0535 mbm ditso di ka una
184_0536 matlalo a dinakedi le a
184_0537 eo o e utlwisisang o
184_0538 a se a tlalletswe ke
184_0539 mohlolo o ke ke wa
184_0541 e kgolwanyane e be o
184_0542 wa mantlha wa tlhekelo ya
184_0543 ba tlilo kopa mohope wa
184_0544 ha o tshila oke ke
184_0546 a ko ntlisetse panana e
184_0547 wa karaburetso o fuperweng meleng
184_0549 san pedro sula
184_0550 kaofela ha di se di
184_0552 eo ke e hopolang ha
184_0553 o se ke wa se
184_0554 elite group included
184_0555 le se ke la nahana
184_0556 o ne a thuisa se
184_0557 irish free state
184_0558 gross state product
184_0559 le phapanyetsano ya lesedi ho
184_0560 se a tsofetse a le
184_0561 re ne re qala ho
184_0562 ho qoqwa ke thaka a
184_0564 ka ha ba felletswe ke
184_0566 wa ho tebisa le ho
184_0570 a nanabela lebokoso le tshwereng
184_0571 o ela ho ya tshedisa
184_0572 a le leqenyana ka bokgutshwanyane
184_0573 ya motjha o tjhele ya
184_0574 le meqoqong ya botswalle ha
184_0575 ne ke se sengangele a
184_0576 kgethilweng ya bamamedi ba habilweng
184_0577 sa benkeleng la ditshepe le
184_0578 npos le ha ho le
184_0579 marangrang a kgokano le tshebedisano
184_0580 ho phumula le ho bentsha
184_0581 e ne e le hake
184_0582 e lokelaho ntlisetsa ngwetsi le
184_0583 o ie thabong o a
184_0584 social democratic parties
184_0585 bo nolofatswa ke ho ba
184_0586 ha ho tshwanelehile o ka
184_0587 mo rekele masela le tshwele
184_0588 ho teko ho o tl
184_0589 mafapheng a bokwetlisi boletsaphala le
184_0591 la tahi o utlwela ka
184_0592 e ba ho se ho
184_0593 van der waals
184_0595 a ka re ha ba
184_0597 ha o le mokapotene wa
184_0598 ha re kwaleng mmaraka wa
184_0599 ya mo sikarong le ho
184_0600 ba ka ha ke sa
184_0601 a theolwa ho ya ka
184_0602 holy roman emperor
184_0603 ba ho thabisa baadimi ba
184_0604 rekisa ditholwana ho lokisa ditshupanako
184_0605 ba a kgatholoha hanyenyane ka
184_0606 tlhekefetso ao ho ya ka
184_0607 le se ke la hlokomoloha
184_0608 ne di qetetse ho tshwauwa
184_0609 morwetsana eo o a se
184_0614 didietsa le lehlokwa bo ha
184_0615 dipenshene a ho se akaretse
184_0617 re kg kg kgrr kgph
184_0619 lebiswe ho mohiriwa mokodi ka
184_0620 ho na le kgonahalo ya
184_0622 lesika le atolositsweng la ditswala
184_0624 e na le ba sa
184_0625 ba be ba mmetse ka
184_0626 momahane meharo le boikgohomoso ba
184_0627 le ho thuhiwa ha ho
184_0630 e se e le dilemo
184_0631 ba ditsotsi ba ne ba
184_0632 ke le kgethong ya beryl
184_0633 le tjhabang le le dikelang
184_0635 f le g ha e
184_0636 ke hlatse ha ke o
184_0638 le ke ke la kgutlisetswa
184_0640 ka elektroniki ceftu e entsetswelopele
184_0641 se kgone ho thusa ka
184_0642 british virgin islands
184_0643 ya bommakarabelo ya arabelwa ke
184_0645 lebaqolotsi o ne a ba
184_0646 free open source
184_0647 ba iphumang ba le ditleneng
184_0649 a re ha ho tume
184_0651 ba ma komonisi le ho
184_0653 re ha ke no o
184_0654 o amohelehang o re o
184_0655 ka kahlolo ya seporofeshenale e
184_0656 european union eu
184_0658 pampiri ena e na le
184_0659 ho ipopa le ka tlasa
184_0660 a tlang ho tjeka ka
184_0661 le mokgahlelong wa boraro wa
184_0662 a lahlela lesapo hara dintja
184_0663 la human resources ke ha
184_0664 ho na ya ditlwebelele ka
184_0665 mosuwe eo o ne a
184_0666 ha ba ha re kokololo
184_0667 ka ho nkgonae eo ka
184_0668 sutu e ne e fifaditswe
184_0669 ho le betere ka ho
184_0670 o ne a itshwanela le
184_0671 a e rutla ya phukalla
184_0672 wa dithothokiso ee ho ka
184_0673 e ne e le phakiso
184_0674 o lebisitse hokae ha o
184_0675 ya phesente e tsitsitseng ka
184_0677 le ho rehellwa e le
184_0678 be ho ba la tahlehelo
184_0679 sehlahiswa se phethe tsweng se
184_0680 ha a ne a qoqa
184_0681 tsomana le ho baballa le
184_0682 tshitwe le ne le ba
184_0683 liberal democratic party
184_0684 ka mathoko ho ne ho
184_0685 a tloswe re bee e
184_0686 a se na motso wa
184_0688 arohane ha ho sa okgelanwa
184_0689 ya ho ba lokolla ditlamong
184_0690 le ho hlalosa ditema ka
184_0691 ya mo kgama le ho
184_0692 diteko dihlahlobo diporojeke le diasaenemente
184_0693 ba selomo bo kwahetswe ke
184_0694 united states federal
184_0695 ha di oroha o a
184_0696 ka re tshomo ee e
184_0697 le a tshwanel a ho
184_0698 ka ho re ditaaso di
184_0702 amino acid residues
184_0703 le ho a le b
184_0704 ba ntshatjotjo ho fumanadithendara tseitseng
184_0705 eo ba e arabetseng ha
184_0706 ha se na ho o
184_0707 buisanwe ho shejwana ka la
184_0709 bo sa bonweng ka mahlo
184_0712 ba e ba le boikarabalo
184_0713 o ne a tshositswe ke
184_0714 le ya khomishene le ho
184_0717 ao re a lemang di
184_0718 ka ha e ananetswe ke
184_0719 re na ha e le
184_0721 o se ke wa ikopisa
184_0722 ke ke be wa ba
184_0723 la netefatso ya tshehetso ya
184_0725 ne e le e tlokomang
184_0726 ha e le ho la
184_0727 ba ntjhebileng ke ne ke
184_0728 ke ne ke sa bula
184_0731 ha hlahala e phatloha e
184_0732 basebeletswa ba srsa ho ya
184_0733 o re phetelang se kileng
184_0734 a ne a sa mo
184_0739 ba bonwe o ne a
184_0740 mafahla ke ha a ne
184_0741 new york university
184_0742 medumo ya makoloi le dimotokara
184_0745 le eo ho dumellanwang ka
184_0747 otara ha o hloke ho
184_0748 wolfgang amadeus mozart
184_0749 diapole difateng tsasenatlahadi se diphakaphaka
184_0751 di na le dikhamera le
184_0752 new york giants
184_0753 tharo masilo le ntshiuwa ba
184_0754 ka lengolo la semmuso mohlahlobi
184_0756 fopha ho sututsa ho mo
184_0757 maleng komishenara o ne a
184_0758 ka lebososelo le monaleo a
184_0759 wa ntlo ya thapelo o
184_0760 o se ke wa reka
184_0762 ha ke sa mo tshepa
184_0763 sa moputso sa moraorao sa
184_0764 e be ke metsotswana e
184_0765 khotone ho ohla masalla a
184_0766 european space agency
184_0767 science fiction fans
184_0768 ba tshwaneleha ho tshwaneleha sane
184_0769 kgolofalo ya ho ya ho
184_0770 ngotsweng a sebetsa ka boyena
184_0771 monyetleng wa ho hahlamelwa ke
184_0772 ho nehalana a hlokometse ho
184_0773 khomeshenara ya dikanao e na
185_0005 ho ruruha ha manonyeletso di
185_0007 disampole di nehwa ba osts
185_0011 major league record
185_0015 e thehilweng ho nyehelo ho
185_0017 ke ne ke le e
185_0025 a nbotsa ho re na
185_0028 cape breton island
185_0029 ke eo o se a
185_0033 ba thontsweng ke sacnasp professional
185_0034 minister margaret thatcher
185_0036 mashaeng empaha ho a ka
185_0037 bo bong le bo bong
185_0038 engwe ho na le ho
185_0040 sa tlhatlhobo le f ho
185_0042 le ke na le toro
185_0043 ha ho tluwa mangolong a
185_0045 kansas city chiefs
185_0046 di fihlile mohwang e sa
185_0047 tsatsi le tjhabang le le
185_0051 ho ya dihela dikgala sware
185_0059 south west england
185_0061 o e tlatse ka ho
185_0062 e tswalwang ke metsetso e
185_0066 le bothong o ba le
185_0068 le vii ho diswa ho
185_0074 le halofo ho isaho a
185_0075 bronze star medal
185_0078 roman catholic monarchs
185_0081 fact date december
185_0082 toustu bisekiti le raske dinong
185_0083 ditaba maikemisetso maemo le sebopeho
185_0085 ba dipatlisisomme a mo eletse
185_0086 qetella e le diqhwala ka
185_0087 eo a e sietseng rehauhetswe
185_0088 sehlooho se sekasekwa le ho
185_0089 ne a sa mathe o
185_0090 belehwa ha e ba ntshe
185_0093 o re phethele ka se
185_0095 kasefuthu le ka lekgetlo le
185_0096 potlolomente e sootho e mabanta
185_0097 ba a tsieleha ha ba
185_0098 o sa hetle le ka
185_0099 efe kapa efe e ka
185_0101 ho tshwaetsa ho phatlalletseng ha
185_0103 prime number theorem
185_0104 ba a re nyatsa ha
185_0106 ke ya html le ha
185_0110 mebaraka e bulehileng kgwebisano ka
185_0116 o se ke wa senya
185_0117 qoleng ho ya motsong wa
185_0118 canadian prime minister
185_0124 ho hlwekise khotone le h
185_0129 leruo le utswitsweng jj le
185_0130 ke ya di heleng ho
185_0135 nyetsweng di ne di siile
185_0138 nyahlatsa pistolo le mahlahlelo a
185_0140 lethathama la tlhekatlheko le ho
185_0142 re ho etsahalang hantlentle na
185_0143 mofuthu ha o ne o
185_0146 e shweleng e ne e
185_0147 aithunya ho ne ho sa
185_0149 a e ngotseng le ho
185_0151 phethelwe ha ho thetheswa bohadi
185_0155 state university alumni
185_0156 wa lefi ho ya ka
185_0157 qale ho ebesela a ntjhafale
185_0160 re be re phehisane ka
185_0168 eo o e belaelang ho
185_0171 di iketlile di ja lekomo
185_0172 la ka ke dudu re
185_0173 market prices estimated
185_0175 ha mothendari a ka phumola
185_0176 mopeleto le tshebe diso e
185_0181 le kgabisa ka bophatshwana ba
185_0184 united nations standard minimum rules
185_0188 ka hofetisisa e ne e
185_0189 federal trade commission
185_0191 ya seyalemoya le theleveshene di
185_0193 nuclear power plants
185_0194 cite web title
185_0197 dipereng le ho beiseng ka
185_0199 dihlahiswa ho pakela le ho
185_0201 native american culture
185_0205 ha a se a rutehile
185_0207 e be kwakwa ya ho
185_0210 rupella le ho kwetlisa ho
185_0218 o se o hlwele matsatsa
185_0221 ho o besa ba polela
185_0222 sa leke ho mo nyokola
185_0223 mo kwala molomo ka mpama
185_0226 je mabele a matjha masimong
185_0229 ya dikarolwana le value matices
185_0242 le tlhokahalo ya lebotho la
185_0246 le thakgiswe sebuweng o a
185_0247 york stock exchange
185_0249 dead link date
185_0250 ke e tsebisisa hantlehaholo le
185_0254 bonokwane bo kenyeletsang thepa ya
185_0255 ao bahlahlobi ba mabatowa ba
185_0257 inehele sepoleseng e se e
185_0262 a sa lefeng sekoloto sa
185_0263 o balehang ho bebofaletsa motshwai
185_0267 kotsing eo o amehileng ho
185_0268 ba batlileng ba mmolaya ka
185_0270 e nkuwang e fokoditswe e
185_0271 sitisitswe ke ho se be
185_0272 science fiction themes
185_0274 ho ne ho hlakile ho
185_0276 e totobaditswe ka botebo mohatong
185_0279 e ka shadingwang ha ho
185_0281 ho latelwe ho sayeng ka
185_0284 mofepedi ha ho sa be
185_0290 ho ikgetha ho disosa le
185_0297 sa foleng a holofatsang a
185_0298 tekanyo ya kgolo ya moruo
185_0304 phuputsong botjhutjhising le ho mamelweng
185_0305 nuclear power plant
185_0308 b c d le e
185_0310 a ba a thubaka fanetjhara
185_0311 se kgotsofale eentse mehoo a
185_0317 national league championship
185_0321 intelligent design proponents
185_0324 ne a se a ikgodisitse
185_0326 ke sekgukguni a ne a
185_0328 new economic policy
185_0329 dikontrakeng ditshupamelatong ditjhekeng mangolong a
185_0332 ho hloho ya yuniti ya
185_0336 letsoho la ka le ruruhile
185_0337 ndoh le na le dilekane
185_0339 ditlhoka furu e sa silwang
185_0345 amino acid sequences
185_0351 ya regulatory inpact assessment ria
185_0352 ba le ho se hlahiswe
185_0354 table mountain e apesitsweng ke
185_0359 se ke wa nkuka ka
185_0362 ba le programa ya ho
185_0364 a re qiti maphethelong a
185_0372 kgothalleditsweng ho na le ho
185_0377 ke sa e hlalohanye ho
185_0382 dikotsi le sesosa se ka
185_0386 king george
185_0388 sehang terata e meutlwa e
185_0391 ririanya kameriri yare ha lelakabe
185_0392 le bareki le ho nehela
185_0396 sisa se hlahiswang ha ho
185_0397 le le bohlale ho mpheta
185_0409 ha ho na le phapano
185_0411 laka la ka la nomoruweng
185_0412 eo ka ho latellana ha
185_0415 kereiting ya borobong ha a
185_0417 mojaho ha a ke ke
185_0420 le bohlweki moaparong le dipuong
185_0422 bophiritona ba re ho o
185_0423 ya a b le c
185_0426 ka ba ke re re
185_0430 thabohadi medidietsane le pitiki ya
185_0432 kenngwe melaong e nseng e
185_0433 cambridge university press
185_0434 ne e se e nyeunya
185_0435 ha ho tluwa tabeng ya
185_0439 new zealand english
185_0441 kgolwao potile le ha rangwanao
185_0442 ka ho shapuwa ke e
185_0443 ha mohatsaka a ne a
185_0444 san francisco giants
185_0445 le khroumu letsopa lehlabathe le
185_0446 e betsetswa ka fensetere a
185_0447 tangtang ya kgangwa ke lerole
185_0451 football league teams
185_0455 ya fumanang di ke ke
185_0456 le ho adoptha ho itholla
185_0460 a ja ha ke kgore
185_0462 ka dikhanselara le ho ba
185_0463 ka na ba ha a
185_0467 ya ho sutha mokgweng wa
185_0472 vicky strydom o tshepisitse ho
185_0475 ao mohlahlobuwa a nehelaneng ka
185_0476 ba mo rahakaka molatoane o
185_0478 wa selalomehadi sa sekwenyamatjhaba ha
185_0482 bannga ba mapolasi le basebeletsi
185_0483 feela leha ho le jwalo
185_0484 two umthetho wa se tjele
185_0485 sydney opera house
185_0486 ke ne ke sa lwane
185_0492 homo phatsa o ileammeha ditlhakatse
185_0493 francis ford coppola
185_0494 ahlakola seretse se e silafaditseng
185_0496 o ne a atisa ho
185_0497 jwaleka ha ho hlalosetswe mohato
185_0499 e buela sekgukgung dikgotjheletsaneng ha
185_0500 a lefuweng letloleng la mohlokomedi
185_0501 o a ntlhola ngwanaka ha
185_0502 ho robala ke ho fetoha
185_0503 e ka ba nyane hakae
185_0504 e bmosiuwa ke mohlahlami boreneng
185_0507 ha e ke e binwa
185_0510 microwave background radiation
185_0511 a mo laole le ho
185_0513 independent media diversity trust ha
185_0515 ntjha le diphetolo ngodisong e
185_0517 ho ya dikopanong le disimphosiamong
185_0518 nkga a re phu ke
185_0519 science fiction fandom
185_0520 lossless data compression
185_0522 ba srsa ho ya ka
185_0526 le ho sireletsa lehlakore la
185_0527 ikamahanya le ba reretsweng ditaba
185_0528 founung botoloki ba founu bo
185_0533 se ntshitsweng ke laboratori e
185_0534 di hlaphohetsweng ba ne ba
185_0536 sa ho ba le ditlhahiso
185_0537 hapelefatshe le ke ke la
185_0539 ho nnetefatsa lekunutu la molli
185_0540 ba dikapeso ho ba diporofeshenale
185_0541 ha e betsetswa ka fensetere
185_0542 ho etela tulo eo ho
185_0543 be e bonolo e napahetseng
185_0545 ba se ba tshwasitse tlhapi
185_0547 qatile mohatla kobo di fokaela
185_0549 baokajeno e sengele dikgutsanakgudu ke
185_0551 gold medal recipients
185_0552 numeric character references
185_0554 sebeditsweng lehlaso o be o
185_0557 molaong melawaneng le molaong o
185_0558 tlelapo ya lantjhe b o
185_0560 a ka kgaotsa ho tsuba
185_0561 dipatlisisong a ka bitsa dipaki
185_0562 warring states period
185_0563 ne a tsebahala ka ditlolo
185_0566 mmamesa poeyana re senotswe re
185_0567 ho natefisa le ho hatella
185_0568 ha re e lemeng re
185_0569 ke ne ke sa kgolwe
185_0574 lebitla ee ho ne ho
185_0575 se amoha tlokola se e
185_0577 le ya ho ya ho
185_0578 ne a ka feresa le
185_0582 eo e feletswe ke ho
185_0584 lene le sa thapiswake boikaketsi
185_0587 ralehlatsa o ne a tahilwe
185_0588 le ha e le mariha
185_0589 o se ke wa ya
185_0590 american film institute
185_0591 charles sanders peirce
185_0592 ho utsuwa mabenkeleng a ka
185_0593 feleheditsweng kemoya obatang le ho
185_0594 ho qoswa ha mokhomishenara wa
185_0595 president lyndon b
185_0596 nyalle thollo bafokeng ba mo
185_0598 fixed point theorem
185_0601 ba hodileng le ho ba
185_0604 le ho ba tlhokomelong ya
185_0605 ya ho di fumantshwa tshedimosetso
185_0607 roman catholic church
185_0609 australian labor party
185_0610 ha ho ya hlotseng e
185_0612 ba le boreletsana ha ba
185_0615 le le borethe letsheare lohle
185_0617 o di botsitsweng tlhaka ya
185_0618 ke kgoeletso e sebedisetswang ho
185_0619 president george
185_0620 ka a ba lekgonono ho
185_0621 e talana e pepileng lebidi
185_0627 o honothele ka ha ke
185_0629 ya sa rutehang ya bolotseng
185_0631 prithvi narayan shah
185_0632 ja le ho di ja
185_0634 o ye a re ha
185_0636 ya ayodine e qetwa ke
185_0638 na le bomadimabe bo ka
185_0639 francisco bay area
185_0641 north germanic languages
185_0642 dipitsa di dulang di pjatla
185_0646 ho fuputsa le ho lokisetsa
185_0647 la boditjhabatjhaba ho phethelamoralo wa
185_0648 ya kankere le ho amohelwa
185_0649 phiri e se e jele
185_0650 ka supina ho bitswa le
185_0651 na le methwaelanyana e sa
185_0653 ka ho hweba ka thobalano
185_0654 ya ho iteanya le dti
185_0655 ke ne ke o tshepile
185_0657 ke tshwenyehile o se ke
185_0663 na ho na le basabetsi
185_0665 federal reserve banks
185_0666 letahwa le ka thuseha ha
185_0668 latailana e ne e le
185_0669 ha o dulellane le ho
185_0672 kodisang ha a ka a
185_0674 lekola botjha le ho hlaola
185_0675 united nations general
185_0677 bui sana le mec ya
185_0678 ne ba qenehela bara ba
185_0679 early bronze age
185_0681 monday night football
185_0682 wa genevieve wa ho ba
185_0683 ho hoholo ha ho rentwa
185_0686 united states declaration
185_0687 le yogathe e ka nwewa
185_0688 e le molwantshi terameng ee
186_0002 e a tsitsipana e honyele
186_0004 le ha di sa utlwisisehe
186_0005 british royal navy
186_0006 ha o ka tlohella ho
186_0012 bo weso ka ho ja
186_0014 e lohothwang temaneng ya i
186_0015 second boer war
186_0016 a se ke a kgethollwa
186_0018 ne di mathile mantswenga hlahlalebajwadi
186_0019 ya mmuni ya ho bokelletsa
186_0020 le ditlontlollo re ka phelahamonate
186_0021 momahano cohesion ketso ya ho
186_0022 phupung ka ha o ne
186_0023 ha di timanwe e se
186_0024 mosi o ka kubellang ho
186_0031 king james version
186_0037 eo ba e jeleng ao
186_0040 ba ratang papadi ya bolo
186_0041 ha a ne a hlolwa
186_0043 following table shows
186_0045 boston red sox
186_0046 bokolone le apareteite a bakile
186_0049 ha ho se ho ngangisanwe
186_0056 ba matebele a hlapang ka
186_0057 ho ya ka tshisinyo ho
186_0062 e be e be mohlankanyana
186_0063 vene ho ne ho le
186_0064 e momohaneng e lebisang tlhalohanyong
186_0066 bo a raroloha ho fihlwa
186_0072 tayo ho ya ka melaotheo
186_0074 designated service provider dsp dsp
186_0077 o ne a tlohile matatilele
186_0079 ne ke thothomela ke tshohile
186_0082 ho se ho fetile beke
186_0084 le dierekisi cauliflower le broccoli
186_0086 ya fihlileng a lahlela lesapo
186_0091 ho thwenge atile le ho
186_0095 a seke a ikobela boitlamo
186_0097 e le e qabolang e
186_0103 ya akademiki ya learnership ka
186_0105 kathata le ha baseba efuwa
186_0107 semeremere le tshea ke tene
186_0109 hleneng ke labohlano ho na
186_0111 a jelle kgwebeleng le ho
186_0113 kopo ya thuso ya tjhelete
186_0114 se e hlomamisitse di nlb
186_0115 e sebedisitsweng metareng wa dikarata
186_0119 ka mokgowa oo ntlafalo e
186_0122 unesco world heritage
186_0124 utlwe ntlhakemo ya ka tabeng
186_0125 new york jets
186_0127 middle high german
186_0131 ke ho ikwetlisa le ho
186_0137 ha o nthate o mpa
186_0139 united states national
186_0146 nebula award winning
186_0147 be re ke ke ra
186_0148 mies van der
186_0152 supang qotso di a bulwa
186_0153 sa a ha se ame
186_0154 e balletsweng e tlama letswalo
186_0155 ya makgiseterata ya kagisohape le
186_0158 ee o ka re mopheti
186_0159 diofisi a se kea hlopheha
186_0160 lamohlolohadienwa ba ritsetsa katlase ho
186_0162 ho ba thodisa se itsheleng
186_0163 british north america
186_0165 makwalata e ka fodiswa haholoholo
186_0168 yuraniamo le thoriamo boteng ba
186_0169 ho sebeditsweng lehlaso o be
186_0171 tjhakatsa ka mahahapa ke motsofehadi
186_0177 lohothwang serapeng sa a a
186_0178 sa jwetswe le ka ho
186_0179 a khompeuta a word processing
186_0182 kgohlopo o ne a ka
186_0183 ba meharo le ho ikgohomosa
186_0184 ha ke a ikemisetsa ho
186_0188 e batle hang di haella
186_0191 eo a mo fileng matlaya
186_0194 pope urban
186_0198 ya emellwang ka sepolo ho
186_0201 seterekeng sa great lakes re
186_0202 lekala le letle la ho
186_0208 ye a re ha ho
186_0209 le phekolo e tliswang ka
186_0210 ho se tsube ke e
186_0212 a ne a mo laile
186_0213 ba vidiyo le ho tsekiswa
186_0214 buella setlokotsebe see sa moshanyana
186_0215 phamola ditsuonyana a sa mmotse
186_0216 ho se tsejiswe lebiso la
186_0218 binary search tree
186_0219 le dindaseteri e le ho
186_0220 prime minister tony
186_0224 o sa ye secunda o
186_0226 dicereale reisi ditapole setampa phoofo
186_0231 dac doj pansalb saqa le
186_0233 o le makaqabetsing ha ho
186_0237 lekgolo re nyalane ho salang
186_0238 sehlahiswa se phe thetsweng se
186_0244 ya ka mehla le tlhahiso
186_0246 a le natala tlhware e
186_0247 o ne a o etetse
186_0249 le kananelo ya leksikhokrafi le
186_0250 ngwahashome ngwahakgolo bapabi le ho
186_0251 ke ke a phela ka
186_0252 a inyalanyang le dipallo le
186_0253 jewish theological seminary
186_0254 le moferefere e se e
186_0255 ka maafrikaborwa re na le
186_0257 ya mmabotle le rabotle ba
186_0258 se ho kgwaphohile ho potlakela
186_0259 ruri e ne e le
186_0260 lekgotleng le buletsweng bohle la
186_0261 ba ditekesi ha ba kenye
186_0263 ho iketsetsa kuno le diprojeke
186_0266 thokonyana ho maseru wa qwading
186_0267 kgosto nkabe ke re llang
186_0268 ne a sa rerisa malomafodisa
186_0271 ka ho se je hnatle
186_0272 e na le ho ja
186_0274 mohobelo a b kgoro ke
186_0277 ha a itlhompholle ka ho
186_0280 ke letlaka haufinyane ho fetafeta
186_0281 e ne e kenyelleditswe ho
186_0282 sa rutehangbafola difemeng ba rutehilengba
186_0283 dikele leotlile letswapo le ka
186_0284 carl friedrich gauss
186_0286 melbourne football club
186_0287 botoloking ho leksikhokrafi le mareong
186_0288 o o fetisetsapelebakengsatsatlhahlobisoyammele patholoji thekenolojiyabongaka
186_0289 o molokoloko ha ho diratswana
186_0290 re atisa ho ya mabaleng
186_0292 o motsumi wa meya ya
186_0293 ya phumantsho ya matlo ya
186_0294 shwalane e se e tshwere
186_0295 ba le pherekano eo ho
186_0296 ho ke ho kgutlwa re
186_0297 motjodi o tono se sephatswa
186_0299 ke mahodi a patile maeba
186_0300 le ne le hanella mmetsong
186_0301 short story writers
186_0303 ya phetiso le taolo ya
186_0304 ka tjhepisi ya stimorol e
186_0305 o imme ya nyarosa kgwapo
186_0306 lifetime achievement award
186_0307 international space station
186_0308 tshwanelehileng di amohelwe ke registration
186_0309 ba ramautla ba re etsisang
186_0312 tlatsa dikgeo ka mahokedi a
186_0314 northern mariana islands
186_0315 mo kopela tshwarelo o se
186_0316 judase ha a ne a
186_0318 saint john river
186_0319 a amohetseng a re thusitse
186_0320 ditsela le ditlwaelo ho ya
186_0321 mmatoko o ne a se
186_0322 ya ba lai lai thu
186_0323 traditional chinese medicine
186_0326 ha e le a ditsietsi
186_0327 american film directors
186_0328 ya ka e a thulama
186_0330 ba ne ba le pelotelele
186_0332 states national film
186_0335 re iqeke emoholo esere ra
186_0336 palo eo o e kopang
186_0338 ba phetelana ditshomo ho itlosa
186_0339 ya boshodu ho tjhwatlwa ha
186_0340 european economic community
186_0342 e otlolohileng le ha e
186_0345 tshebetso e bolokehileng ya ralewa
186_0348 le ha ho le jwalo
186_0349 ke re ke se ke
186_0351 ka mokotlaneng wa baki a
186_0353 re be re tsohe le
186_0354 ke no ebola tapole habedi
186_0355 latetswe le ha e le
186_0357 thero le mo kgoqola le
186_0359 kgalemetswe le ha e se
186_0360 nkgwebetha la re ke le
186_0362 tu ha kgahliso a mo
186_0365 cognitive behavioral therapy
186_0366 ba buisanang qotsong e ka
186_0367 mmusong wa provense ya freistata
186_0368 ho be le ho senolwa
186_0369 se bo bokeletswe le ho
186_0370 eastern orthodox churches
186_0373 ka ditlha ho kgontsha ho
186_0374 se o fetohile ha ba
186_0375 terameng ee o ka re
186_0376 wa setlokotsejana a se a
186_0377 boikara belo ba motlolamolao ho
186_0380 asebesetose e se e emisitse
186_0381 le phethelo semelo sa baphetwa
186_0382 eo o se o qalelletse
186_0383 re o tshwenngwa ke ntaramane
186_0384 e metjha ya sekimi ke
186_0385 le ho rutweng titjhere e
186_0386 meralo diqeto le kameho ya
186_0387 tjhee ke ne kekopa matlaa
186_0388 bohloko ba seeta bo utluwa
186_0389 ba loketseng ho ka lekolwa
186_0390 a tsamaye le a e
186_0391 o ne a ka bellaellwa
186_0396 faeba tlelase patsi le seili
186_0397 united states military
186_0399 lehlabathe le kalaka ho ya
186_0400 lekala la ho ithuta la
186_0401 ya moriti le khanopi ya
186_0402 ka ho rialo ha ke
186_0403 ya ka ke e bakilweng
186_0407 ho iteanya le majoro le
186_0408 sa ho entela feberu e
186_0409 bontsha ho ba sedi mehopolong
186_0410 o ne a mofilwe ke
186_0411 new york times
186_0412 a se a suthile a
186_0413 e ithutwang ho isa puong
186_0414 be a mo lohetse mano
186_0415 new age movement
186_0416 australian prime minister
186_0419 le ho ya ho e
186_0420 wa sepalangwa se sebedisitweng thomelong
186_0421 a porafete ho ka ipehwa
186_0422 kgoro ke ha ho kenwa
186_0423 o se ke wa romella
186_0424 ba ho kgeswa le ho
186_0426 kabelo a sa le monyenyane
186_0428 di bopella kahare ho ditekanyetso
186_0429 a tiise le qhelele ka
186_0430 ba le kgaolo e ke
186_0431 a kgwehla e e ka
186_0432 ba di tshwaetsweng le ditekolo
186_0437 a fumanwang ho bomarabe ke
186_0438 se kgopisehe o se hlekefetse
186_0441 ruburiki ho na le ho
186_0442 ba ka tsheptjwang ke ba
186_0443 mabone ya bohlophisi ya ho
186_0444 ka bobare ho ya ka
186_0445 accurate date information
186_0446 e fuphula sa phakwe tsuonyana
186_0447 ndoh le etseditswe ho etella
186_0448 le se ke la ya
186_0450 league championship series
186_0451 ho ajwa ha maruo a
186_0453 bo fetohakang le f ho
186_0454 letsholo la ho hlasela le
186_0455 ho lefshwa e le tefiso
186_0458 ka tlelapa ke ne ke
186_0459 fumanweng ho bafani ba tlhokomelo
186_0460 re re mo tlohelletseng tleneng
186_0462 intellectual property rights
186_0463 la diphetolelo le tlhaolo ya
186_0464 ho jewang hlenhlenyane ho ya
186_0466 re ke ke ra qhelela
186_0467 ka o tshwarisa mmamphele ka
186_0468 a fapaneng le ho ya
186_0471 ya sekgutlo e ne e
186_0472 ka ha o le mokapotene
186_0474 sekgukguni ha a le ka
186_0475 le fifi sa phoofolo e
186_0476 o ie mahlokong o ie
186_0478 morumo morethetho metuta ya diphetapheto
186_0479 oo lentswe le ka bang
186_0480 ke pac e tshwanelehileng di
186_0481 environmental protection agency
186_0483 la ka le ne le
186_0484 be ha e ne e
186_0485 oo o o kgethileng ho
186_0486 ba menngweng ka boithaopo ho
186_0487 se ke lahlehetswe ke mamello
186_0488 wa sejwalejwale o tenyetsehang le
186_0489 ba hlanya ho ne ho
186_0491 sa di ja le ho
186_0492 ho re ha e ye
186_0493 infant mortality rate
186_0494 ke re mmao o se
186_0495 ditharollo le ka be le
186_0496 american medical association
186_0497 ha e ka ba kaenyana
186_0500 je ba ke ke ba
186_0501 kalana ya moriti le khanopi
186_0503 e na le ho rema
186_0504 seporo le dikou le ho
186_0508 meraro ya ho hweba ka
186_0509 bontatemoholo ba ne baitshepetse ditaola
186_0510 royal australian air
186_0513 trade unions ho ba fa
186_0514 e itebetse ho se ya
186_0515 dintja di se di thotse
186_0516 le hoketsweng tshepeng ya heke
186_0517 e ikemelang e le notshi
186_0518 music awards winners
186_0519 ha ho a ka ha
186_0520 bo naka di maripa ho
186_0521 ya jenerike e na le
186_0523 e fumanweng e le dimpho
186_0525 ke ka maswabi ha ke
186_0527 moreki a ka iteanyang le
186_0528 e ne e le mokolonele
186_0529 ho sisinyeha ho hosesane ha
186_0531 keletso e ahang e buang
186_0532 ho fokotsa le ho fedisa
186_0534 re ke ke ra swabela
186_0536 renkeng ya baragwanath barekisi ba
186_0537 indastering ya polatinamo ha ho
186_0539 ho fumana setifikeiti sa botho
186_0543 mesebetsing e tshwauwang ke baithutimmoho
186_0544 kotjwa ke motshwaruwa ka ho
186_0547 ho ya ka molawana no
186_0548 a ne a sa tsube
186_0549 bo bokellwe le ho sire
186_0550 american musical theatre
186_0551 united states department
186_0552 le hlolwa ke ho itjarela
186_0555 mahata e le marabe ya
186_0556 actor academy award
186_0558 ya kgauta e na le
186_0559 o tseba le ho utlwisisa
186_0560 ka ho mo silela lesheleshele
186_0561 ho ba morupellwa wa hlophollo
186_0562 a theolwa ho ya ka
186_0563 holy roman emperor
186_0565 rekisa ditholwana ho lokisa ditshupanako
186_0566 ba a kgatholoha hanyenyane ka
186_0567 tlhekefetso ao ho ya ka
186_0568 le se ke la hlokomoloha
186_0569 ne di qetetse ho tshwauwa
186_0570 morwetsana eo o a se
186_0573 ha e ba ha ho
186_0574 missing living people
186_0577 o ne a ke ke
186_0578 re kg kg kgrr kgph
186_0580 lebiswe ho mohiriwa mokodi ka
186_0581 ho na le kgonahalo ya
186_0582 musical groups established
186_0583 lesika le atolositsweng la ditswala
186_0584 australian football league
186_0586 ba be ba mmetse ka
186_0587 momahane meharo le boikgohomoso ba
186_0588 le ho thuhiwa ha ho
186_0589 american psychiatric association
186_0591 e se e le dilemo
186_0593 ke le kgethong ya beryl
186_0594 le tjhabang le le dikelang
186_0595 apeswa pobodi e se e
186_0596 f le g ha e
186_0597 ke hlatse ha ke o
186_0599 le ke ke la kgutlisetswa
186_0600 a se a kwenehetse kgarebe
186_0601 ka botenya ho ya ka
186_0602 ya ka le ba bohading
186_0603 ya cashier e be o
186_0605 e le sephoko a kgelekenya
186_0606 be wa ba wa mo
186_0607 le ho se hlomphehe ha
186_0608 roman catholic priest
186_0609 failed verification date
186_0610 ditoloko le ho theheng ditataiso
186_0614 t a ba a mo
186_0615 ka se tshwarwe ka ho
186_0616 canadian pacific railway
186_0617 balehang ho bebofaletsa motshwai ho
186_0618 ke ne ke sa ruteha
186_0619 re ditaaso di tshela mmila
186_0620 ho hlatswa ditholwana le meroho
186_0621 mofubedu o phatsimang le ha
186_0622 alexander graham bell
186_0625 theotsweng ke moadimi le ho
186_0626 ke ha a le haufiufi
186_0627 polish lithuanian commonwealth
186_0628 ruuwa le ho laolwa ka
186_0631 arohana tjeee se e le
186_0632 tlilo kopa mohope wa metsi
186_0634 mamelang ithuteng ho ithaopola ho
186_0636 le ho ba yuropa le
186_0638 o hlatsa le ha o
186_0639 natural history museum
186_0640 amino acid sequence
186_0647 kutlo e bakilweng ke lerata
186_0649 ratane mmebadisana ba ne ba
186_0650 le ha ho lekwa ho
186_0651 mbm ditso di ka una
186_0652 matlalo a dinakedi le a
186_0653 eo o e utlwisisang o
186_0654 a se a tlalletswe ke
186_0658 wa mantlha wa tlhekelo ya
186_0660 ha o tshila oke ke
186_0663 wa karaburetso o fuperweng meleng
186_0664 a sa le monnyane dilemong
186_0665 san pedro sula
186_0667 a mo jajabetsa kabohale a
186_0670 elite group included
186_0671 le se ke la nahana
186_0672 o ne a thuisa se
186_0673 irish free state
186_0674 gross state product
186_0675 le phapanyetsano ya lesedi ho
186_0677 re ne re qala ho
186_0678 ho qoqwa ke thaka a
186_0681 german democratic republic
186_0683 bo hlakileng ba ho kgwaritsa
186_0684 le kokwanahloko ya ya kholera
186_0685 la department of environmental affairs
186_0687 o ela ho ya tshedisa
186_0688 a le leqenyana ka bokgutshwanyane
186_0689 ya motjha o tjhele ya
186_0691 ne ke se sengangele a
186_0693 sa benkeleng la ditshepe le
186_0695 marangrang a kgokano le tshebedisano
187_0001 na ho sehwajwang ho rokwa
187_0002 a ikitlaheditse ha e le
187_0004 thothokiso le ya sengolwa sa
187_0005 ho tsamaisana ka ho lekanale
187_0007 e le ha ho jewa
187_0008 sports clubs established
187_0009 lokiswa ha masalla a setopo
187_0010 ho be le phumantsho e
187_0011 boahisani le european union maelana
187_0012 ba mashaba ba ne ba
187_0013 ya ho ba mahlabeng ha
187_0014 se ba kopanyang ba kopangwa
187_0018 letlole la ho ya pensheneng
187_0020 kgothaletswe ho iqalla le ho
187_0022 e moholwanyane ha a kopuwa
187_0023 be ho petsohe le mafika
187_0027 ka phaposing ya ho phomola
187_0028 citation needed april
187_0030 tafoleng eo ho tsebiswang ho
187_0031 ka maleng komishenara o ne
187_0033 ka mabaka a utlwahalang ho
187_0034 human rights violations
187_0036 e le mojalefa ya ngodisitsweng
187_0038 le baphedisuwa ba ka e
187_0040 makubetse e ne e le
187_0041 american league championship
187_0043 a itshehela a ba a
187_0044 mookgo o ne a iballa
187_0045 containing video clips
187_0046 a post graduate di institjhusheneng
187_0047 methodist episcopal church
187_0048 re se re kgenne e
187_0049 o re ha o ka
187_0050 wa ba wa leka wa
187_0051 manufacturer for agoa particulars di
187_0052 ne o le bolepolepo o
187_0053 institushene e tshepuweng ka ho
187_0054 ke ke ha eba bonolo
187_0055 tu ha ho sa na
187_0056 ha o re o a
187_0057 a o fetohela oiphumane o
187_0058 a rarahana di a lohellana
187_0059 kuruetswa ke ho re a
187_0061 eyes wide shut
187_0062 high seas fleet
187_0063 le bitleng la mmaletrato le
187_0064 kekgalefo ya re ha mmatshokolo
187_0065 bontshe tosa le madinyane a
187_0067 ke utlwile bothabiso ba re
187_0069 le ho se ba fe
187_0072 re majalefa a sekema se
187_0073 la ho se utlwane ka
187_0074 ho ka be ho sa
187_0076 tseno ka ha di ke
187_0080 ka ho qolleha ba kopanye
187_0082 tefo ditshehetso le menyetla e
187_0084 oo ho ona mongodi a
187_0086 ao a sa ka a
187_0088 wa mooki tliliniking e ka
187_0091 ya qositsweng ya lokollotsweng ka
187_0092 le mosenekeng ke ha di
187_0093 ke o tlele ka bohlanya
187_0094 bafubedi ba re tlere ke
187_0095 e se e le ba
187_0096 a se a hlokahetse monyaduwa
187_0098 e se e le motsheare
187_0099 etlare ha ke tea kalala
187_0100 ya mo fenetha ha ba
187_0102 ho ne ho tsohwa ka
187_0103 bolaoding ba lekalala fet re
187_0104 sa qoso le bohanyetsi mahla
187_0105 e kgotjwa e le maoto
187_0106 ho ja ha o na
187_0107 wa sekolo ha a le
187_0109 ha letsohole fepela mmetso morenao
187_0110 tshenyeho ya mesifa mascular dystrophy
187_0111 kgelohang tokelong ya bohato bofe
187_0112 ho notlellwa ha di sa
187_0113 ho yahae e ke ye
187_0114 summer olympic games
187_0115 sa sebetseng mmba be ba
187_0116 ho ile ha ba le
187_0117 ka makgetlo a tsheletseng ka
187_0119 ka nepo ho fetisa ka
187_0123 hugo award winning
187_0124 ema wa opa diatla ha
187_0125 ho dumedisa mmamoruti ha a
187_0126 e be ke mokgethi wotong
187_0127 boqhetseke le ka bohlwahlwa ha
187_0128 thehileng matleng le mananeong a
187_0129 a ikemisetse ho reupella le
187_0130 wa matsibolo a se a
187_0133 pitsa e phehang gauta ka
187_0136 ba intshang sehlabelo ka ho
187_0137 barutwana le matitjhere ba be
187_0138 tshwenyehile o se ke wa
187_0139 la dikgokahano ba in communications
187_0140 ditshila ya ho bapala ka
187_0141 following demographic statistics
187_0142 le tshwantshe le la ka
187_0144 se nw e seno se
187_0146 e kgwaetse ka lehafing a
187_0147 eo ba mo feheletsang ka
187_0148 sa mo re shwato nkong
187_0149 human rights abuses
187_0150 nafvsa e na le phaposi
187_0151 ya polokelo le ka kenngwang
187_0153 sa qeaqee le ho qeaqea
187_0155 ba ba le kgaoho ya
187_0156 ke sa o putsa ka
187_0159 se batlwang ke takadimane ba
187_0160 ha o seilwe ke ba
187_0161 ba le phehiso e tlotlehang
187_0162 ne ba ye ba re
187_0163 ba pokeletso ya basebedisi ba
187_0164 aung san suu
187_0165 wat sal my nou te
187_0167 buisanang le ho ngangisana ka
187_0168 ka re makau ke sebapadi
187_0169 mo hlokomedisa ka bobe le
187_0170 irish republican army
187_0171 phe thetsweng se baleha ha
187_0172 ne o ntjodietsa ha o
187_0173 le le ka sekotlong sa
187_0174 re e ka mo loma
187_0175 mohlomi o ne a etelwe
187_0176 sa nkge leseporo le kgutletse
187_0177 hlotjhwa ha ba di shebelletse
187_0178 e nngweba ne ba bonesaka
187_0179 se a kgahlilwe ke ka
187_0180 ho se ho ho le
187_0181 le ha a ne a
187_0182 mokgahlelong o ka tlasenyana koporo
187_0183 e ka ba le ditlamorao
187_0184 ntlheng le ha e le
187_0185 roman catholic bishops
187_0186 ka sekotlolo a sa sebetse
187_0188 e lelefalang le ho kgutsufala
187_0189 na le seroto se sa
187_0191 tebetebeng eo o nkentseng ho
187_0192 a welang makaleng a tshwanang
187_0193 moporesidenteha ho na motshwaruwa ya
187_0194 ka bokamoso ba ka ha
187_0195 di sa le setlwaeding yaletsetsa
187_0196 serapa le ho hlwekisajarete le
187_0197 afidavite e tswang ho setho
187_0198 matshwafo a se a uba
187_0200 ha re lekola dikopo le
187_0201 ho re ho se ho
187_0202 e re pududu a sa
187_0203 a sa ka a kgaola
187_0204 a pula a phallella ka
187_0205 le ho ipapisa le thomo
187_0206 le ho tshehetsana le ho
187_0208 le ho se sebedisane le
187_0209 tsamaiso ya sekema le ditlhophiso
187_0210 tjhotjholosa ba ne ba le
187_0211 e se e ie dibeke
187_0212 le apesa ho kupetswe bofeela
187_0213 o ne o e so
187_0215 didibeng babalang ba re le
187_0217 ntjapedi ha e hlolwe ke
187_0218 wa ket sahalo ya ho
187_0219 national historic site
187_0221 ya ka tlelaseng setsing sa
187_0222 a ka ngodiswa e le
187_0223 le ha e se a
187_0226 e ka ba le makukuno
187_0228 mo tshabang ho nkgisetsana mahafi
187_0229 o ka tlasenyana koporo ho
187_0230 maru a matsho a fifetseng
187_0231 mme o sehe mola qetellong
187_0232 john maynard keynes
187_0233 tjhetjha a ba a tjhetjha
187_0234 re ba memmeng ka ho
187_0235 ho bolokwa le ho hlokomelwa
187_0236 ka theko o kgutsa motsotswana
187_0237 re lebatswadi ba banabana le
187_0238 ya mo hatelletseng e ba
187_0239 sa dikulo difensetereng le monyako
187_0240 o re qobella ho hasanya
187_0243 national security council
187_0244 ya vat vendor search ke
187_0245 a tsamaya o ne a
187_0246 dikgwerekgwere le monyediso ya mantle
187_0247 o ne a hlabile dioka
187_0248 boikopelo re se re sa
187_0249 eo re ka mo kgothollang
187_0250 direng ba mo seohela ba
187_0252 re be ngatanngwe ke pheto
187_0253 o ne a sa thothomele
187_0255 ba ke ke ba jala
187_0256 o sa dumellwang wa ho
187_0257 ho ya ka bafuputsi ba
187_0259 dipalesa mabitleng e ne e
187_0260 dikgomo le manamane ha bashanyana
187_0261 e le ba ahetseng tjhankaneng
187_0262 ba fuwe dipilisi ha ba
187_0263 a re itjhuu itjhuu itjhuu
187_0264 bomolao boikarallo ho ba le
187_0265 o se ke wa kenya
187_0266 se ke wakgahlwa ke lefiso
187_0268 mahaladitwe le ditshehlo ka ho
187_0269 a holetseng ba kwalehile ba
187_0270 e na le boikarabelo ba
187_0271 ho ya ka dikereiti mephatong
187_0272 se phethahetseng setjhabeng le dibakeng
187_0273 developments pty limited le khayalethu
187_0274 ba ne ba le thekong
187_0275 be e se e kgutlisetswa
187_0276 setsi le ho ba le
187_0277 o se kgitla le ho
187_0279 le phokotsehong ya ho putlama
187_0280 mo hatelletseng e ba mohlodi
187_0281 ho se o lefise ditefiso
187_0282 sa cricket ka ho ba
187_0284 di buwang ka boikobo bo
187_0285 ne ba seretswe ha mefenetha
187_0287 bo ke ke ba fetolwa
187_0288 e kgothaletswang ya llifi ya
187_0289 o ne a sa a
187_0290 metjha ya kahare ka ho
187_0291 e lwanelang ditsela ha e
187_0292 kgomathisetse tshaeno le ho hatisa
187_0293 ho ba pepenene le ho
187_0294 a ke ke a fetolwa
187_0295 manane le dinehelano le ho
187_0296 le nehelano e nang le
187_0297 thenthetswa le a nyonya le
187_0298 ba mapolasing balemi rui le
187_0299 boyona e ke ke ya
187_0300 la phapang eo e a
187_0302 eo e ke ke ya
187_0304 neho sa kahaeba le lerataka
187_0305 le kelohloko e hlokolosi ya
187_0306 baena le dikgaitsedi ke thatano
187_0310 ho ne ho phethesela ke
187_0312 malomao ya o hodisitseng ho
187_0314 ho na le dingongoreho ka
187_0315 e le tlaka le a
187_0318 santaco re ke ke ra
187_0320 e sa hlokomelweng ka ho
187_0321 e maikemisetsong a ho ka
187_0323 a le opela mahofi lekgutlana
187_0324 ka botjhabela ho ho ne
187_0325 se thibelang mafafatsane a ko
187_0326 ba tjhetjhe ha e le
187_0327 dube thankga a be a
187_0330 ke ke wa ba le
187_0332 o re tlotlolotse re ne
187_0333 dikgomo ha di na motlohapele
187_0334 a se a bina sefela
187_0335 semoya a tsamaisanang le tlhwekiso
187_0336 le lesisithehonyana ho ka phunya
187_0337 underwriter ho ya ka pholisi
187_0338 le ha hothwe ke lenqosa
187_0341 ho ipapisitswe le melawana ya
187_0342 se saenetswe ke baamehi ba
187_0343 mamenemene ba bolotsana ke maqitolo
187_0344 ho se hlomphehe ha ho
187_0345 united nations peacekeeping
187_0349 ditjhate diphousetara dinepe ditshwantsho diselaete
187_0350 steyn delport a fa mmueli
187_0351 le ho senolwa ha sephiri
187_0352 o ka be o amohetse
187_0353 ha ba hlajiwe ke dihloong
187_0355 wa nomora ditlhokomediso le ditemoso
187_0357 ha a ka kgaotsa ho
187_0358 ka e se e le
187_0359 etsuwa ka ho ya ka
187_0360 ka ha ba ne ba
187_0362 martin van buren
187_0363 a lehodimo a matle ke
187_0364 qoqwa ho a tshehwa ho
187_0366 t o rekile senomaphodi ledikuku
187_0369 ho na le mekgwatsamaiso e
187_0371 o bohlile ka letheka maru
187_0372 wa ka eo ke mo
187_0373 nka ka re ke a
187_0375 ba re ba tlosa letshweya
187_0376 ithutla a ba a re
187_0377 o be o sisinye ditlhahiso
187_0378 ya a le e le
187_0379 ha mokomeshenara wa dikano a
187_0380 great leap forward
187_0383 baholwanyane ba bananyana e ne
187_0385 e kengwe setempe e be
187_0387 ke na le mathatanyana a
187_0388 hothwe ke lenqosa le o
187_0389 ya o rekisetsang pholisi pholisi
187_0391 ha o se o phethetse
187_0393 e ya e honyela o
187_0394 se ho phahlwa ho phothasela
187_0395 re ha ke mametse pina
187_0396 modulasetulo le motlatsi wa modulasetulo
187_0397 e ne e le ntsho
187_0398 ka ho otloloha lenanetataisong la
187_0400 ka kaho ya institjhushene le
187_0401 ba hlahlobilweng e le ba
187_0403 mabitso a dibaka la afrika
187_0405 ke re ke moihlwe ho
187_0406 best supporting actress
187_0407 wa tlhware ha di lome
187_0408 se le hopotse ho ya
187_0409 id le ya tshupiso ya
187_0410 karolwana e ntshitsweng koranteng jj
187_0412 o se o ntlela ka
187_0413 african union member
187_0414 republican national convention
187_0415 e be e se e
187_0416 ho be le lehokela le
187_0418 ho teba le ho tsepama
187_0419 ho le mahleke ka hohlehohle
187_0420 phemiti ya ho romela hlapi
187_0421 ke ke a kgona ho
187_0422 joyene e fedileng ha a
187_0425 dutch east india
187_0426 isitsweng ho bafetoledi ba poraefete
187_0428 ho le leratanyana le thibang
187_0429 waseithati ya tshepileng ho itshwarela
187_0431 a tiisa ke a hlapanya
187_0432 lomahantse meno ha ke re
187_0434 pokello ya mantle e ka
187_0435 ruburiki eo o e fuweng
187_0436 moputswa sa masumu wa dithako
187_0437 ha ho ya emellwang ka
187_0438 di tshetswe ka nkgo ya
187_0439 ho saena maqephe ohle a
187_0440 ke ramahlale ke ne ke
187_0441 pope gregory
187_0444 ho ba le kemedi e
187_0445 ha di le ha bo
187_0446 united nations security
187_0447 eo o ne a kgabelletswe
187_0448 ka fofa a kgaola masabasaba
187_0449 a tlohe tekenikonong ya witwatersrand
187_0450 se e le holofala ya
187_0451 ke sentebaleng ha a ne
187_0452 ho buella setlokotsebe see sa
187_0453 e ne e le moqebelo
187_0454 random variable
187_0457 na le tjheseho ya ho
187_0462 ha e se a bontshitsweng
187_0463 a ya lengotswaneng lehaufi a
187_0468 barekisi ba dikoranta ke ha
187_0470 se e le yabeng ba
187_0471 video game console
187_0472 ba ne ba felletse ka
187_0473 ba banyenyane a re psa
187_0475 o tletlebe o be o
187_0476 thodise ba re ha ba
187_0477 di loketse bomang ba dilemo
187_0478 mo fa matl a fe
187_0479 mooki tliliniking e ka marantha
187_0481 na le leqai le ka
187_0482 e o phehise hlama ka
187_0483 academy award nomination
187_0484 e methwang ka dimetara e
187_0485 soma leho nyefola se sa
187_0486 ba ngo le cbo ba
187_0487 di poma diterata ka dipeta
187_0488 junior high school
187_0489 ya hlokangmasapo ke ne ke
187_0490 buswa le ho laolwa ke
187_0491 ya ho robalana le ba
187_0492 hobositsweng ka kgoboso eo ke
187_0494 ya ho itshebetsa le ho
187_0495 re se re tsebiswa ka
187_0496 butle ka ho betsa ka
187_0497 ha ho le ba mo
187_0498 ao a ho tshoswa ka
187_0499 ho ka ikopangwa le iucn
187_0500 mokoena akhaonto ya polokelo ya
187_0501 f a ka laelwa ho
187_0502 mohlakeng e ne e le
187_0503 hlwahlwa tjhebelopele le pono e
187_0504 mopresidente mandela o ne a
187_0506 o re o tshwenyana le
187_0507 pope paul
187_0508 e ke ke ya leshwa
187_0509 silika e be ho ba
187_0510 o be o a sebedise
187_0511 di didietse ha di ka
187_0512 e kojwa e sa le
187_0513 le ho se be le
187_0515 ba neba e buela sekgukgung
187_0516 bo ne bo methwe ke
187_0517 mdnb le ho rala mekgwatshebetso
187_0518 orbital angular momentum
187_0519 ka menyako e sa notlelwang
187_0520 ho na le mananeo a
187_0521 ya mmeleng o na le
187_0522 se thwasang se ke ke
187_0525 re ke a o kgalema
187_0527 ka booker t big show
187_0528 ya boqapi e a nehelwa
187_0531 kahong ya maitemohelo thekenoloje le
187_0532 moshweshwe moshwashwaila ya e ba
187_0533 o a tshabeha e sa
187_0534 e teletsana ho e henahena
187_0535 ya boitjhoriso ba ne ba
187_0537 jo ke eo a kwala
187_0538 eo ke e labalabelang ha
187_0539 phetoho phedisanong ya semelo le
187_0541 le ho tshireletsa baletsaphala le
187_0542 atlantic slave trade
187_0543 e tshetse seturupu se se
187_0544 ho ka ba le ngangisano
187_0546 of sa hpcsa e sa
187_0547 phephetso eo re tjamelaneng le
187_0548 ba ke ke ba timelwa
187_0549 le o sisintseng o ka
187_0550 national geographic society
187_0551 hokelwa e le ho kgutlisetsa
187_0552 ya boqwetha e a roropa
187_0553 ba o potapotileng ha ba
187_0554 toropo tokotoko ke eo o
187_0555 o ne a mo ja
187_0556 ha re a tleha ho
187_0557 hodima a se a re
187_0558 na mosadimoholo o ne a
187_0559 boramapolasi ba ntseng ba hola
187_0560 be ke le hlokela tlhompho
187_0561 ba re le dipampiring e
187_0562 ha monna a mo elelliswa
187_0563 ba lahlehileng e ya weposaeteng
187_0564 ditholo le difofu ho bakileng
187_0566 ka la moshweshwe moshwashwaila ya
187_0567 phamokate din a le ketsahalo
187_0568 cite book author
187_0570 i e tsolo le qumbu
187_0571 ka ho teneha na ke
187_0573 hehehe ha ke ne ke
187_0574 bomasepala ba lehae le ba
187_0575 qholotsanwa ditjhaba di telela le
187_0576 phahla pinyane ere ka ha
187_0577 ho na le tshabo ha
187_0579 ba ne ba ka qoqaqoqa
187_0582 ka e ne e re
187_0583 ke be ke le hlokela
187_0585 e foofo feela e batla
187_0586 diforomo ha di fumanehe khomputeng
187_0587 mahlomola boo ke ntseng ke
187_0588 o ne o le o
187_0589 kobontle ya ho apolwa e
187_0590 e se e bolailwe kematetetso
187_0591 thunngwa sephakeng a ba a
187_0592 dihlotshwana tsefapafapaneng ho ya ka
187_0593 porafete ho ka ipehwa ho
187_0594 o ke ke wa finyella
187_0596 jwaloka kgwebo e ka thoko
187_0597 kgele ha ke a le
187_0598 le ho beha ka ho
187_0599 ditjhipse ho e na le
187_0600 le makgotlaneng e ne e
187_0601 kotlong ya ho lefiswa e
187_0602 tokiso e etsuwe ke moqosuwa
187_0603 le merearea a hata kwekwe
187_0605 le ba banyenyaneba dumedisana ka
187_0606 cite news title
187_0608 ho balwa ka ho bapa
187_0609 ho ba komiting eo ya
187_0610 e ne e le malepa
187_0611 ha ke bone ho hlokeha
187_0612 basebedise ba sa tlaelehang ba
187_0613 bo tsholohela ka ho bo
187_0614 a ipolella ho re ho
187_0615 se ke a ba le
187_0616 selele keleng qetelong le dite
187_0617 ye le rarahane le nyehle
187_0619 seratswaneng sa aii le d
187_0620 international development usaid
187_0622 o be o tiise o
187_0623 ho bewa ka pela palamente
187_0625 di romelwa ka thelefekse di
187_0626 guru granth sahib
187_0627 theknoloji ho ka kenngwa lekgotleng
187_0628 ha o re o tshwenngwa
187_0630 ho di ja o mo
187_0631 dumelletsweng ba khansele ya diprofeshene
187_0632 ka dimpa a be a
187_0634 ka ho panya ha leihlo
187_0635 mehatong e qalang ya ho
187_0637 o a mo felehetsa ho
187_0638 a arotswe ke moedinyana o
187_0640 o thontswe ho ba modulasetulo
187_0641 e eketsehileng le phano ya
187_0642 a ka be a le
187_0643 samentjhisi sa pinabatha le jeme
187_0645 di technical adviser ho ka
187_0646 ho mengwa ho ba eo
187_0647 utlwe le ka mohla o
187_0648 a ka itlosang boduto ka
187_0649 ha dipheivimente thibelo ya kgoholeho
187_0650 ne re lapile re le
187_0652 ba taolong ya baruti le
187_0653 sethepu se a nyefolwa se
187_0654 polaoyena o ne a sa
187_0655 o sale o ponne sa
187_0656 a tauli e omang le
187_0657 le boahi bo matlafetseng bo
187_0659 mo kwallalemati la tekisi ha
187_0660 afe a ka imela afe
187_0661 ha a ne a le
187_0662 e na le matla a
187_0663 e ne e le molotsana
187_0664 ya ha malomae ho ya
187_0665 a se ke a kgathalla
187_0666 e sa kgolweheng fomula ya
187_0667 le ho butswa ke a
187_0668 re ke ke ra o
187_0669 ha ke enngwe ya mamaneo
187_0671 rata ka pelo ya ka
187_0672 a se thibele mohlekefetsuwa ho
187_0673 tlong ho kgahlanyetsa masopha le
187_0675 le ya maekgepeta ka ha
187_0676 ho be le nthonyana e
187_0677 ya boahi ho ya ka
187_0678 ho kgorohahoaka o ne o
187_0679 golden gate bridge
187_0680 ho fuputsa le ho iphumanela
187_0681 eo a rehellang ngwanahae ka
187_0682 ho fapanyetsana o ne a
187_0683 ke hloletswe ha e le
187_0684 a le tshobotsing ya makgonthe
187_0686 laela le ho laolla dikepe
187_0687 ne a mo lelekile kgetlo
187_0688 potele e kgwathwang ka lehlaka
187_0689 le ho rekwa ha ditswa
187_0690 e felletseng le tokiso ya
187_0691 ke swabile nko ho feta
187_0692 ba di tswasitseng le ho
187_0694 serapeng sa a a nehelane
187_0695 di ye ho ya ka
187_0696 ka mehla ke dula ke
187_0697 phelang ka bolwetse bo sa
187_0698 a nehuwe tesello ya ho
187_0699 ya lehloyo ha e adumellwa
187_0700 botjheng ba ka ke ne
187_0701 e ha ella ng ya
187_0704 a ke ke a phela
187_0706 le tshusumetso e leeme e
187_0707 e thakgoha ke ha ho
187_0708 bo bokaalo ho bannanyana le
187_0709 e lemariha mmedikolo di phomotse
187_0710 middle eastern countries
187_0711 ha ho eketswa metheong e
187_0712 boyabatho eka makatikati o tena
187_0713 stephen jay gould
187_0715 ka toboketso lentsweng le phetwang
187_0716 ha ho sebediswe di a
187_0717 united states army
187_0719 o ka ikisetsa samane ka
187_0720 se senyenyane ha kale setla
187_0721 phatlaladitsweng ka ho le letshehadi
187_0722 le mafapha a diprovense a
187_0723 e ikarabella mesebetsing e mengatanyana
187_0724 le divaerase dibakethiria le c
187_0725 ba difariki ya ka ha
187_0726 centres di lrdc e le
187_0727 le menyenyetsi ya ho se
187_0728 le sekgukhuni o ne a
187_0729 ka nnete ha ke tsebe
187_0731 o ne o mo sotla
187_0733 dira dibatana le dinyamatsane di
187_0734 a tshehetsa le ho sireletsa
187_0735 o na le mohono o
187_0736 le makaqabetsing ha ho na
187_0737 ya ho lebela ya bopolesa
187_0738 ke ha le se le
187_0739 a iketse badimong le ho
187_0740 ho alashwa e sa le
187_0741 ho ya ka tjhebahalo ya
187_0742 e tshopodi e le ka
187_0743 mehoding eo o e abelang
187_0744 seeta bo utluwa ke monga
187_0745 ho na le e le
187_0746 le opileng kgomo lenaka ke
187_0747 maburu a ba phedisa ha
187_0748 atlehisitswe potoloha ho ba batlatsi
187_0749 ha ho thenthetswa le a
187_0750 ho sa le hongata ho
187_0751 american television series
187_0752 le ho e kama wiki
187_0753 le matlafatso ya moifo wa
187_0754 ya letoto la web smart
187_0755 re o a mo qoqisa
187_0756 ho qhoba bosiunyana bo le
187_0757 ba koro outse dinawa dilentils
187_0759 russian civil war
187_0760 o alafang e letotong la
187_0761 phomoditswe ke ha baqolotsi ba
187_0762 na o ne a qetele
187_0763 joo hi a kgwatjhoha atlolela
187_0764 so arabelwe ka ho kgotsofatsa
187_0765 le kaalo o ne a
187_0766 o ne a makatswa ke
187_0767 se o iphetotse moleleri wa
187_0768 le mosebeletsi wa laeborari ya
187_0769 re mo phahletse ra ba
187_0770 mehlala e metle eo a
187_0771 ho o batang ba setseng
187_0772 ba na le tb e
187_0774 eo ho ka sebetsanwang le
187_0775 ya mefutafuta e batlang e
187_0778 o be o sa ka
187_0779 tshehetsan g di bopil we
187_0780 mmokelletsi wa matlole ya ka
187_0781 motshehafuma o a ipiletsa b
187_0782 pokelletso ya matlole ha se
187_0783 ho re e ka mo
187_0784 le neeletsano e momohaneng e
187_0785 e sa kgeseng le ka
187_0786 tlhahlobo ya laesense ya ho
187_0787 ho ja masapo a hlooho
187_0788 wa e laolla ho website
187_0789 le tsebilengthabo le nyakallo ya
187_0790 ho alafa mafu a sa
187_0791 ho kgalengwa le ho tataiswa
187_0793 ya b sc b sc
187_0795 adonsonia digitata se tsebahalang ka
187_0796 moratuwa ke lebohile ho menahane
187_0797 ngwaneso ke lahlehelwa ke tshepo
187_0798 ha ho na sera sa
187_0799 be e se e putlama
187_0800 ho ikamahantsha le ho phathahatsa
187_0801 ho re rakgwebo a ingodisetse
187_0802 gold mametja o na le
187_0803 la phoofo mafi yogathe di
187_0804 indebted poor countries
187_0805 disanthao hamonate o mebala yamookodi
187_0806 o se o behile meja
187_0807 hlabang makotikoti a sa tshelang
187_0808 ipolelang o saenne ke le
187_0809 motheo ka nepahalo ka sewelo
187_0810 george bernard shaw
187_0811 a se a nqhobella majwe
187_0812 ke kgothaditswe ke ha a
187_0813 hlorile o kgapong mo tlamolleng
187_0814 world wide web
187_0815 o se ke wa re
187_0816 tlatlatjwe tshwengwe tsha biswe sokodiswe
187_0817 ha ke re ke ne
187_0818 na le monyetla wa ho
187_0819 ba di antseng letsweleng ke
187_0820 national park service
187_0821 prudence e ne e le
187_0822 o ka be o di
187_0823 ya dinare e be ba
187_0824 ka bo a e i
187_0825 itshole ho se ho senyehile
187_0826 ho ba ba nyale ba
187_0827 ba rutehilemme ba ikemetse kahohle
187_0828 ya lenane la borapolasi ba
187_0829 british west indies
187_0830 ha o se a lebane
187_0831 kwallwa a ba a ahlolwa
187_0832 e se e le la
187_0833 ho gems ka kotloloho le
187_0834 ya ho ja o ka
187_0835 palohare e ne e finyelletswe
187_0837 le akanang le la atlantic
187_0838 qhe qhe qhe qhe qhe
187_0839 ba sotle ha o ka
187_0840 se tshepisitseng fifa le dibapadi
187_0841 ho kentswe bonyane mohlala o
187_0842 diterateng ba pepesehile le ho
187_0843 na ho sa na le
187_0844 leeme tshekamelo le kgethollo di
187_0845 rotha mofufutso o tlalang noka
187_0846 ya mongodisi e romela mangolo
187_0847 ke ne ke tlile ho
187_0848 lepatlelo la dithekiso le ho
187_0849 nuclear test ban
187_0850 monono ke mohodi ke mouwane
187_0852 ho ba bobebe ho e
187_0853 ke mang ya ka etsang
187_0854 ao ho atisang ho kopanwa
187_0856 o se ke wa thetswa
188_0001 egepeta morocco ghana le london
188_0002 original
188_0005 ka maetsi a matso a
188_0009 ho sala ho dubehile ho
188_0013 ya lebatowabrigitte shabalala ha a
188_0015 eo ba e abetsweng le
188_0018 wa praevete di ne di
188_0020 le tlhaselo ya malwetse le
188_0021 functional programming languages
188_0026 dental caries a tlwaehile ho
188_0027 ba le tjhehile e ne
188_0028 e ma hareng ya ditlhokeho
188_0029 pauli exclusion principle
188_0033 thousand years ago
188_0036 import permit e na le
188_0037 ya polatinamo ha ho na
188_0042 ho se ya e bohileng
188_0044 north atlantic treaty
188_0046 ngwanana eo a mo tlapuretse
188_0047 president woodrow wilson
188_0053 sexually transmitted diseases
188_0054 le diketapele le kgutsufatso ya
188_0055 se tshwanelehe ha a bapisehe
188_0057 ho hlompheha le ho se
188_0058 mmohole burundi comoros sudan haolo
188_0061 wa lbs ka ha lbs
188_0065 ikadimeng meelelo e mengata ho
188_0070 ka di apostille certificate ke
188_0074 o ne a hlenne melomo
188_0077 ho ho ne ho puruma
188_0082 kgwehlise mangole e le ka
188_0084 tseetsahetseng kgalekgalesetjhabengseo di qoqwang hosona
188_0089 distinguished service medal
188_0091 ka moya o motle ho
188_0093 wa sekete ya thelevishene e
188_0101 representative democratic republic
188_0110 nations security council
188_0112 mtv video music
188_0115 ya di deeds e ya
188_0119 molwantshi ho ka ba le
188_0122 world wildlife fund
188_0124 ho sa thabelwe e be
188_0132 the wrath of the ancestors
188_0135 programming languages created
188_0138 ka tonnoro e bulehelang ka
188_0142 sir francis drake
188_0153 ya sa batleng ho jarelwa
188_0154 se je hnatle ho kenyeletsang
188_0157 historia regum britanniae
188_0160 african national congress
188_0167 old church slavonic
188_0170 ya ho ya tsoma marabe
188_0174 se se se o natefela
188_0176 di a phethiswa ho be
188_0177 ne o a ithutelang ha
188_0192 e le ho hlakola dikadimo
188_0199 hlweke ho se be le
188_0200 united states began
188_0204 federal communications commission
188_0205 australian rules football
188_0206 mo lebelong la ho neelana
188_0207 e ikgabetse e kgabile kang
188_0214 ho thehwe puso e ntjha
188_0216 ana ao a a entseng
188_0217 ikethang wa ho kgotlalletsa ba
188_0219 ho ngaka e laolang meriana
188_0229 ya heno ya sephethephethe e
188_0230 systems act le integrated sustainable
188_0234 porofinsi yeo ha ripoto eo
188_0241 nyahamisa e a iphetapheta e
188_0248 ya diabo e se e
188_0249 asian development bank
188_0251 di hokahane ka ho hlaka
188_0254 eastern european countries
188_0255 united nations convention
188_0259 local government act
188_0260 ya thontsweng le d ho
188_0261 ho e na le ho
188_0269 mixed martial arts
188_0272 camp david accords
188_0276 sepheyo ke ho nyalanya boitsebelo
188_0279 union member economies
188_0285 a rohakane a be a
188_0286 ka ha ho hlomamisitswe ke
188_0289 ne bo hlomola ho le
188_0294 ka ho ya moketjaneng ono
188_0295 le ha ho qaqisitswe ka
188_0297 ya tsitsinngwa ke diheshana bomafisa
188_0300 d ho hokahanya le ho
188_0317 e dumelletswe ho ka eketsa
188_0319 le ho phuthollwa ka bo
188_0320 se di sebedisetsang ho kenyakenyana
188_0326 international criminal court
188_0328 hee ke re o nkgitlile
188_0336 kgauhelo e ne e le
188_0337 israeli prime minister
188_0339 ka dinkgo ho ya sedibeng
188_0347 a le mahlomoleng a ho
188_0348 ba bangmme se kaba le
188_0355 ho ba le dvt ba
188_0356 o shobile a o entsemotloutlwana
188_0358 ka hodimo ha ho tshwauwa
188_0363 ke ne ke sa mmone
188_0368 e pakuweng ho otsjet ejiwe
188_0376 ho tu ke sitwa ho
188_0378 ntlokgolo ya icd e pretoria
188_0380 ha o ne o re
188_0381 iv na ho na le
188_0384 ya mmakoma a sa lobe
188_0388 digital signal processing
188_0391 le e qhwaelwang sefubeng kgau
188_0393 memorandamo le articles of association
188_0396 ne a bitsitse mmantsopa ie
188_0397 mo apese ka mapheo manong
188_0398 ho shatilefensetereng ha re tswaa
188_0400 se omeletseng se sa fumaneng
188_0402 le ho lokisetsa ho tsebahatsa
188_0403 di ka nyoloha ha e
188_0406 e thehilweng bodumeding le dihlopha
188_0407 ya referense eo o e
188_0408 ho re ba re kwetletse
188_0410 deedsweb ka ha ho na
188_0412 ba re ke ho qetello
188_0413 aparetseng e ye e re
188_0414 ya momahanyo ya dikgokahanyo le
188_0415 a se hlokang bophelong ba
188_0416 sa ka ka ba le
188_0417 a lekanang mahlakoreng a mabedi
188_0418 na ntwa e ka fetelletsang
188_0420 ka ho ya ka minerale
188_0421 a se a boletse a
188_0423 ekare re diphoqo ha re
188_0424 ke diyanokeng di bapile le
188_0426 ho ya ka pilir o
188_0428 dithunya le ditanka le difofane
188_0430 e se mohlokomedi ya ka
188_0431 ya mohoma sa basa ya
188_0432 award winning authors
188_0436 treaty organization nato
188_0442 ya pa role ya ho
188_0446 le dipelaelo ka yonamabapi le
188_0447 e monyenyaneyena o ne a
188_0448 ho se be lengwana ya
188_0452 k h r mapenshenara le
188_0454 e tidinya ha engwa ka
188_0455 o a thatafallwa ha a
188_0457 esele ke a o nyonya
188_0458 a mmatle a mo tlise
188_0459 o ne a sa robale
188_0461 mthethwa o ne a sa
188_0462 cup winners cup
188_0463 ha o sa re natsa
188_0465 leaho e ne e le
188_0468 mo re qa kgetlo la
188_0469 nolofatsa le ha ho le
188_0475 hemela a ba a mo
188_0477 ho tlolapele ha re sa
188_0478 bohloko ka ho fetisisa ke
188_0479 ba sa ntsaneng ba botsana
188_0481 ha se mara ha se
188_0482 ya hatelletsweng a se a
188_0484 my nou te doen staan
188_0486 ho natefelwa ke dingolwa e
188_0487 e so arabelwe ka ho
188_0488 joint initiative on priority skills
188_0491 malomafodisa o ne a sa
188_0492 ntumella ha ke re o
188_0494 mohloding le ha e le
188_0495 ka nate e sa tiyang
188_0496 r j r masiea e
188_0497 ba ne ba fetotswe ke
188_0498 northeastern united states
188_0503 a sa tahwa o ne
188_0504 e ne e se lekwala
188_0509 ya ka e duma ditshepe
188_0514 a sa tsebenthoeo a e
188_0516 oo ho wona o hlahisang
188_0517 e sootho e mabanta a
188_0520 a ho kholomo a le
188_0521 ha o le manganganyanatjena ke
188_0522 ha ba le kgutso ka
188_0523 british east india
188_0525 o ne a re file
188_0526 ha bofutsana bo e ja
188_0527 mo hauhela a re ho
188_0528 electron degeneracy pressure
188_0529 e e ka re ke
188_0530 a fotse le ha ho
188_0533 mosha o ne a ba
188_0534 o ne a dutse ka
188_0536 wa ikahela ka ho sa
188_0537 rugby union team
188_0538 a o fe resiti e
188_0543 kantle e ne e le
188_0544 re a thaba ha ho
188_0545 e ba ho na le
188_0546 ho le ha e le
188_0549 a timellwang le ke ho
188_0551 e ye e be ka
188_0552 nbotsa ho re na ke
188_0553 saennweng le ho tempuwa ke
188_0554 dithoko di atisang ho ba
188_0558 ke ne ke ipona ke
188_0559 internet service provider
188_0561 le ananela botebong ba maikut
188_0564 o e na le letshollo
188_0566 weleng mekgeng e hlalositsweng ka
188_0569 national baseball hall
188_0570 ha ho ne ho itswe
188_0571 puseletso e se kenyel letsang
188_0572 hule pay as you earn
188_0573 leke ho mo nyokola ha
188_0574 ho se ho se na
188_0578 ba ne ba le bafubedi
188_0579 ha a mo kgalemella mekgwanyana
188_0586 memorial park cemetery
188_0590 a lekanyetsang ka ho ngolla
188_0592 intelsat nonsignatory user
188_0593 ho ntefa bokae ha ke
188_0594 re na ke a mo
188_0595 le lefubedu t w d
188_0597 a fetang le a sefefo
188_0599 ke ha ho qalwa ka
188_0600 o re ntaramane ee ya
188_0601 ba nyetseng ke mampetje ba
188_0604 ka botenya ho ya ka
188_0606 ya cashier e be o
188_0608 e le sephoko a kgelekenya
188_0609 be wa ba wa mo
188_0611 accident statistical system samrass o
189_0001 la melata le ho se
189_0002 ho hohela babadi ho reka
189_0003 wa general electric bekeng e
189_0004 ha ntate a ka a
189_0006 ho ne ho tjhesa ke
189_0007 e le ho ya yunivesithing
189_0008 tholang re se re le
189_0009 a se a le motjhining
189_0010 e tlamehang ho nkuwa ho
189_0014 german air force
189_0016 o a iphapanya o re
189_0017 engineering task force
189_0018 le tswello di ka fuputswa
189_0019 la provinse dibankeng le ho
189_0021 po ka dimpa a be
189_0022 di bopilwe ka tsela e
189_0023 ho fapafapana ha ho kgethwa
189_0024 setho e tiisang boitshetleho ba
189_0025 ha ho kenwe selekaneng le
189_0026 le lebiswa ho moadvokate j
189_0027 ke ho tsofala le ho
189_0028 operation desert storm
189_0029 united states congress
189_0030 eo a ne a le
189_0031 hong kong island
189_0032 a ko nahane o be
189_0033 hillbrow e ne e le
189_0034 itshwere thekeng a re ho
189_0035 le d ho tshireletsa leqheku
189_0036 ho website ya lefapa la
189_0037 ya swine flu ke ho
189_0038 yaka le beso ba a
189_0039 ke ne ke sa hlajwe
189_0040 e sa rerwang a sa
189_0041 kgohletse a le dibebe molomong
189_0043 ya ka ha e le
189_0044 ne a mo thobetse ra
189_0045 re se re o bolelletse
189_0046 o be o hlalose ka
189_0047 wee ee a hweletsa a
189_0048 ho nyalanngwa ha di rutwa
189_0049 le mafika pontsho o a
189_0050 wa parole o ne o
189_0051 ya c ebang o sa
189_0053 ba e abetsweng le ho
189_0054 san ji go roc sichi
189_0055 e amohetswe ho sasa le
189_0056 ha ho na moemedi wa
189_0057 phutholohile ha e ya rarahana
189_0058 manganga a tenang ho kgaruma
189_0059 e ne e le ho
189_0060 ke ho ananela le ho
189_0061 na o ka ba wa
189_0063 na ha ho le tjee
189_0064 fact date november
189_0065 ya ahloletsweng tjhankana ka ho
189_0066 ya seemo se selelele ya
189_0067 ha se le ka felang
189_0068 le ho itokisa ho re
189_0069 ke re o kgopo le
189_0071 towe o mo phetha ka
189_0074 di hlahlojwe le ho fumantshwa
189_0075 international telecommunication union
189_0076 television series endings
189_0077 ratahore re tsamayeng re ye
189_0078 le neletsano e momahaneng e
189_0080 kgulo ya ditefello e etswang
189_0082 o ne o se na
189_0084 batlileng o tshwana le wa
189_0085 le nebank ho ke ke
189_0086 a ke ke a ntaola
189_0088 ka ha le ne le
189_0092 ke a itebohelaha ke sa
189_0093 fihleletsweng ke motsemoholo le diphephetso
189_0094 poelano le voutetse ka ho
189_0095 modimo ha ke sa ka
189_0096 e nenge se e emetse
189_0098 ya bosupa e se e
189_0105 ya b ya foromo ya
189_0110 nyollwa kadiranta le ha ho
189_0114 ka mosing nakong e fetileng
189_0118 greatest common divisor
189_0119 a se a re phoqile
189_0120 tshebedisanommoho ba bophihlelo ba boiketsetso
189_0122 thutong le ha ho le
189_0126 le dikenkeng se ne se
189_0128 science fiction novel
189_0129 diqhoku di batalletse o sefika
189_0130 data link layer
189_0131 a kwenne e le poropotlwana
189_0132 la inshorense ya ho hloka
189_0133 army occupied cypriot
189_0136 ho sisiki boranti le dipiriti
189_0138 ya dutseng ka botlolo e
189_0143 rapid economic growth
189_0144 jo ha qwading e le
189_0147 ho fetolelwa bafetoleding ba poraefete
189_0151 theilweng hodima monahano tlhophiso ya
189_0154 di se di etsahetse ha
189_0156 tshenyo ha e felle mono
189_0158 e ikgethang le ya seakademiki
189_0164 sister ruth e ne e
189_0165 liberal arts college
189_0169 eya tafoleng eo ho tsebiswang
189_0170 i dikonteraka ta disiling ho
189_0171 tlotsa sefahleho ka keketso kamehla
189_0173 ba ka sireletsang le ho
189_0174 social distress relief grant le
189_0177 armenian apostolic church
189_0180 league baseball players
189_0182 electron transport chain
189_0192 bo le ho o batang
189_0193 he ho ne ho se
189_0196 meqoqo ya phirimana j g
189_0198 german military personnel
189_0201 ya hatiswa e saenwe e
189_0203 o lekole phamflete ya adoption
189_0206 letsholong la ho tlabola dilekane
189_0207 pharela le ha ho le
189_0208 e le lekonstabole boriki le
189_0210 united states air
189_0212 qabana hampempe le mmamasolomane vv
189_0213 o phehelletse ho nqosa ka
189_0214 e sa le e qaleha
189_0216 e behuweng ha e le
189_0217 itebetse ho se ya ka
189_0218 lengata ka ho ya ka
189_0220 e le mohirwa wa broukara
189_0222 ho matlafatswa le ho ntshetswa
189_0224 civil rights act
189_0226 sinclair zx spectrum
189_0227 sa le elwa wa maoba
189_0228 ya mapoleseng ha e le
189_0229 eo ho fanweng ka yona
189_0231 empa ho na le ho
189_0234 eo a mo hlokomelang setloholo
189_0235 di je ba ke ke
189_0236 ka mahafing le masapong a
189_0237 ya ka ha e sa
189_0241 ka ha dipotso di nomorilwe
189_0242 a kgaqile majwala a le
189_0244 di fetisetswa sehlopheng se setjha
189_0246 e ne e le monghadi
189_0249 e le mo ba sa
189_0250 se ke a ja le
189_0251 ha mokuru o se o
189_0253 ya mahlale le thekenoloji ntshetsopeleng
189_0254 ho sotlwa ka ho utlwiswa
189_0255 ye di se latelane ho
189_0257 se di tshwailwe ho bolelang
189_0258 ya ka ya farasa ka
189_0264 mojabeng le kgaitsedie disebo ba
189_0265 o a hlwephetsa o tjho
189_0267 higher education institutions
189_0272 african american musicians
189_0273 ba se ke ba ba
189_0275 bo ka se fele ha
189_0279 o re ha ho ne
189_0280 ka seipheo sa ho nosetsa
189_0281 dinepe ditshwantsho diselaete mmino modumo
189_0282 a mo thetsa ka ho
189_0283 se ke la qeyaqeya ho
189_0284 se mara ha se ho
189_0285 a re qaleng ho ba
189_0288 ho di developer le ho
189_0289 tjhepisi ya stimorol e fumanehang
189_0290 free software movement
189_0291 be le tjantjello ya ho
189_0297 ya mmonang ha a se
189_0299 ha a na tsebo ya
189_0300 menu e phuthollang dropdown ya
189_0301 ya lapeng ho ya ho
189_0308 habobebe ka ho tobetsa selefounung
189_0312 ho ya ka phanele ya
189_0313 la ka ke dudu bukaneng
189_0314 ho ya le ho kgiutla
189_0316 game boy color
189_0317 ka konteraka ba tlangwa ke
189_0318 e balta ho emiswe ka
189_0321 wa sesotho o phekolang mafunyana
189_0322 finyellwe le ho qhalanngwa ha
189_0324 mofifi le mmakgama le mmatheko
189_0325 hahelwa servcon ke thubelisha homes
189_0326 le ha ho ka ba
189_0327 lebanese armed forces
189_0329 le ba kojwana di mahetleng
189_0330 ha ho na le molekodi
189_0331 early christian church
189_0332 ke itse setsweng ke hole
189_0333 fihlelammatoko a pitika a meneka
189_0334 ba se ba iketseditse pokelletso
189_0335 o ne o ikopa ho
189_0336 sekgethe ha ke ne ke
189_0337 ba ripitla wadene le mabotho
189_0338 arthur conan doyle
189_0339 lebekere la oli le borotho
189_0340 indian classical music
189_0341 buisana ka wena moetapele wa
189_0342 bo tsamaelanang le tjhesehelo e
189_0343 association football clubs
189_0344 b abela ho phethwa ha
189_0347 hetse sa ba sa itlamela
189_0348 di re tsuuu a tsitsinya
189_0349 ba jang setoto ka lere
189_0351 motswako wa lero la morara
189_0352 a lebelletsweng a ho qadisa
189_0353 emperor sh wa
189_0355 nobel prize winner
189_0356 re tsosetsa diletseng o kgutsa
189_0358 meokgo na le ne le
189_0360 he a ba a thunya
189_0361 a o ipotsa ho re
189_0362 tseo ho fanwang ka tsona
189_0363 ho utlwana le pabala e
189_0364 a e tidinya ha engwa
189_0367 e le ho rothisa keledi
189_0368 hlahe ho o fa dikeletso
189_0370 ho hlahlojwa ke pac e
189_0371 tjhankane e ne e le
189_0372 tsohile e sa le ka
189_0373 setulo sa bosuwehlooho ke se
189_0377 sekepele se behilweng ho ka
189_0378 letheka e ka la mmamodukule
189_0380 europe music awards
189_0382 tsitlallela ho emela boikemisetso ba
189_0384 e ka la mmamodukule o
189_0385 a keketehe ha sehwabane se
189_0386 sekgoba o be o hlahise
189_0388 ka makopanyi masupi le mahokedi
189_0389 polelong ya a le ya
189_0390 ha e ba ha o
189_0391 ke o rata ke tiile
189_0392 be a se a mo
189_0393 o re ho robala ke
189_0395 chester williams o ne a
189_0399 la abiele ha re sa
189_0400 o se ke wa hadika
189_0402 le thelefounung ho di e
189_0404 ho kgwehlang e ne e
189_0406 pope pius
189_0408 tobaneng le ho ntshwa ha
189_0412 ka botsona di ne di
189_0414 ya ka a ka re
189_0415 o fihla ka be ke
189_0416 a le moimana ha a
189_0417 second punic war
189_0418 socialist workers party
189_0419 eo le mmolokileng selemong se
189_0420 ka ho una ho tseteleng
189_0421 army air forces
189_0422 international astronomical union
189_0425 commedia dell arte
189_0429 le tjharola ya mohlankana e
189_0431 le lempetje ha ore o
189_0432 los angeles dodgers
189_0433 lekgomosha ke ha le se
189_0434 american female singers
189_0436 ka ho re se mo
189_0438 o ikgotsofaditse ho ya ka
189_0439 lesele ha a se a
189_0440 ya sethatho ho iswa ho
189_0442 ho ba hlorisa ke a
189_0444 a be a yo re
189_0445 e se e kgelekgetha holele
189_0446 morunyaneng a ba a kgatholoha
189_0447 second world war
189_0448 lepolesa le tsh wanetse ho
189_0449 cc e ka hlodisana le
189_0450 tjhoba le se le letse
189_0451 oo mokobobo o na le
189_0452 calluses ho di vocal cord
189_0453 ho rehella ka ho tlotla
189_0454 ho ya thupelong ya tjhoriso
189_0455 ne a se a tenehela
189_0456 ke sa eboneng ke kgathetse
189_0457 ke dule ke kgwabitlwa ke
189_0458 a e i o u
189_0459 ha e le mo o
189_0462 le ka tjheletevv raboditse o
189_0463 bapisa maelana a ho kholomo
189_0464 boemedi ao ho nehelanweng ka
189_0465 he di ne di ye
189_0466 motsotuwa ho se ho se
189_0467 eo faele ya data e
189_0469 anetse ho ba re hedi
189_0471 ka lesedi ho bohle ba
189_0474 e music flat
189_0477 e be e phethilwe ka
189_0478 ho ba eo rejistra a
189_0480 mo kgothatse le ho mo
189_0481 matswantle a iphumanang a le
189_0482 kemohlolohadi a ke ke a
189_0483 kgotjwane le sekoto mmo ho
189_0484 o ne o hirile bahiruwa
189_0485 le ha eo a ne
189_0486 ya authority to apply e
189_0488 metjhini ya othomatiki e sa
189_0490 a kgonneng ho inyalanya le
189_0491 mohlang oo kolobe ha e
189_0495 semela ha o sa se
189_0498 ne ke o kala kelello
189_0499 old catholic church
189_0500 turkish army occupied
189_0501 o sebete sa ho beha
189_0502 ba motenya bo ka fokotswa
189_0505 bidibidika a be a yo
189_0506 graphical user interfaces
189_0507 indus valley civilization
189_0509 best foreign language
189_0510 sa sefuwa di na le
189_0511 ha ho se ho ho
189_0512 voutu e eketsang voutu eo
189_0514 ho se le nyallano ya
189_0515 american civil liberties
189_0516 wa tuka e ne e
189_0519 pejana ho tswa ho nac
189_0521 di na le c ka
189_0522 ho ya ka ka kglofalo
189_0524 se itshwenye le ho itshwenya
189_0525 states marine corps
189_0526 ho buseletsa mo kgwatshebetso wa
189_0527 e mafolo folo e tenyetsehang
189_0528 tadimang e le a behang
189_0529 arohaneng eo o ka e
189_0530 le mo imela le ho
189_0531 se sekaale ha e le
189_0532 buwa le boraditaba meqoqo e
189_0534 arizona state university
189_0536 nobel prize winners
189_0537 ho se ho apolwa ho
189_0539 oo wa ho iswa ha
189_0541 ka ho re salla le
189_0543 se re a tenehe ho
189_0544 ya ka jariswang sekodi sa
189_0545 le a hoa ha a
189_0546 le ho tshwaratshwara ho sa
189_0547 mahlaku ho ya ho ya
189_0548 le boiphihlello cv a ko
189_0552 di ne di bolokilwe ho
189_0553 masimo a senngwa ho ya
189_0554 ka ha e sa le
189_0555 mo furalletseng ha a sa
189_0556 mabone a re fi ha
189_0557 mophetwa enwa o ne a
189_0558 ya ho ka timela ke
189_0559 le lereko ba makaditswe ke
189_0561 ka ha ho bontshitswe kabong
189_0563 diminerale le eneji le la
189_0564 a mpone ke le koko
189_0567 controlled substances acte
189_0569 teana le bothata ha a
189_0572 se e sa hane hwetla
189_0573 british television series
189_0576 mabotho a masole a malala
189_0577 mopeleto le tshebedi so e
189_0578 teboho e be hempe e
189_0580 league baseball teams
189_0582 southern united states
189_0583 ekakgona a se tlohellwe a
189_0584 ramaqiti e ne e le
189_0585 le eketsehileng ka dintl ha
189_0586 e le ho ipapisa le
189_0587 e tshehetsan g di bopil
189_0590 a re ha a kgathatse
189_0591 ke se ke ile ka
189_0593 microwave radio relay
189_0595 o a iphetela ka ba
189_0596 hlahlobong o a thalatsa o
189_0597 se ka nako tsohle di
189_0598 ha di se di oroha
189_0600 ya be e re elellisitswe
189_0601 mareo le mererong ya diprojekte
189_0606 di be le tatso e
189_0607 hlwatswa sebae ka letoto la
189_0613 ne ke thabile ho re
189_0614 ya kgohlong ka ha e
189_0615 serobe phiri e se e
189_0616 seqo o se ke wa
190_0006 ya ho tshwasa dihlapi o
190_0008 e ne e le polokwe
190_0011 ho se hlalosahobane bonneteng ha
190_0012 monga mobu a ka ya
190_0015 early iron age
190_0016 di springbok ka ho ba
190_0018 ya turfloop mekete ya ho
190_0019 ben nene o amohetse kgau
190_0021 e boetsa e na le
190_0023 e sa tsamaelaneng le ditshwanelo
190_0024 ba se ba saletsweke dikgwedi
190_0025 o qalella ho lla ho
190_0026 pala ha ba se ba
190_0027 o kgotsofale ho re lepolesa
190_0028 eoya ka a ko mpolelle
190_0029 o ke ke wa etsiswa
190_0030 ho ingodisa sedikeng sa ho
190_0031 fundamental physics concepts
190_0032 ho oo ho fellwang ho
190_0034 nnyeonyeo o bitsa lebitso la
190_0035 mahlale le theknoloji ho ka
190_0037 be le selelekela mmele o
190_0038 operation iraqi freedom
190_0040 na bontate ba dumelletswe ho
190_0041 ba ba laelang le ba
190_0042 ka lengope kgidi ya boi
190_0044 re sejana se setle ha
190_0045 jewish american writers
190_0046 ha di a tshehetswa ho
190_0047 ka eo le re qhoshetsang
190_0048 lebelwe e ne e le
190_0049 ba ke ba ba ithaopela
190_0050 ne re ya ka nnqeng
190_0052 wa yunivesithi le molemong wa
190_0054 e a apesitse ho phema
190_0055 ya pdf ya phr e
190_0056 o ne o se yo
190_0057 narrow gauge lines
190_0060 boikutlo boiketlo le ho o
190_0061 a thekeselang a moruo wa
190_0063 le tsietsing e tshabehang ha
190_0064 sa ho se sireletsehe ha
190_0066 o se ke wa latella
190_0067 ne ho ithabiswa ka metjeko
190_0068 a dibajete ao re a
190_0069 e bapetsweng ke mopresidente wa
190_0070 ya mathomo e ne e
190_0072 ya ho tshwarelwa ho leswe
190_0073 a sa topalla boikutlwahatsong ba
190_0074 ho kgutleha hlakoreng la methepa
190_0076 ha a a hlakelwa ke
190_0077 la bataung traders qwaqwa ke
190_0078 ngwanangwanake o tswere ya ditswere
190_0079 ho se ke ha lwanwa
190_0080 di ba arola ho ya
190_0081 ha a le d e
190_0082 ne a tenne a di
190_0083 metara o fumanwa o sa
190_0084 lebese la letswele bomme ba
190_0085 clarify date march
190_0086 ka kotlo difaene le dikotlo
190_0087 ho kgalengwa re ke ke
190_0088 be o tshetswe ke bannga
190_0089 ya ho suthiswa ha baipehi
190_0090 di a sitisa ka ha
190_0091 kgothatswa ke ho thaotha ho
190_0092 green bay packers
190_0094 ripoto eo e se e
190_0095 o ka ya itefela wa
190_0096 wa matona a robong ho
190_0097 le babokelli ba ngodisitsweng ba
190_0098 ke kgitlehang dibete ke boitshwaronyana
190_0099 metsikapa e mo shapang ho
190_0101 great rift valley
190_0102 ya seterata sa setoro sa
190_0103 ho to kafatsa bot lokotsebe
190_0104 ho mmona ha ba se
190_0105 gross domestic product
190_0106 a hauhelwe a fuwemosebetsi o
190_0107 ho ya ka temana ya
190_0109 a fe mmamolete phiyo e
190_0111 personal income tax
190_0112 ya palohare e ne e
190_0113 la kgiro haeba o le
190_0114 di lokisitswe ha ho balwa
190_0116 o totobale e be wa
190_0118 ke ke tsalefuwa gemskemorerowathusoyabongakaoreretswengbasebeletsi ba
190_0119 ke ho se lekalekane ha
190_0120 ba silela motoho kalona a
190_0121 bakudi ba sa kgathatseng ie
190_0122 le ho otlwa e le
190_0124 ha ho na le dikgaello
190_0126 le ho se di apare
190_0127 o ne a itjele ka
190_0128 ya tlhalo ba romele afidaviti
190_0129 clarify date december
190_0130 di ne di mo hopotsa
190_0131 phetelo o pheta pale ka
190_0132 asiti dipi sebolaya dikokonyana le
190_0133 ne a se a tenne
190_0134 yeo re ka e fang
190_0135 ha ke ne ke mo
190_0136 a dipudulwana a dimenerale ho
190_0137 le boye mokubetso le ha
190_0138 ha e utlwahale ha e
190_0140 a tshwaetsang a tsamaiswang kedijo
190_0141 ngwanaenwa a nthuta ho fina
190_0142 le dithelevisheneng ho ne ho
190_0143 se ke ke sa kodumela
190_0144 ho ba mokgwatshebetso o phatlalladitsweng
190_0145 e simolla lekwa e yo
190_0146 ka ho ba le dikgothaletso
190_0147 jorge luis borges
190_0148 aphela o photjhotse ha e
190_0149 sehollake a motsholele maqa a
190_0151 ho lebisitseng ho sebedisweng ha
190_0152 le mmatoko ba ne ba
190_0153 ka moahi wa joburg ho
190_0154 a mo phehela motoho wa
190_0155 ho na le mekutu ya
190_0156 ba foromelang ditene nokengya kgopjane
190_0157 se hlokwang ke baunamolemo le
190_0158 o re ho etsahalang hantlentle
190_0159 tlositswe setulong sa botshepehi ka
190_0160 dihlahiswa non proliferation status of
190_0161 pheko ke mosotli wa meya
190_0163 o se nyahladitse o ne
190_0164 le e batlang e nepahetse
190_0165 e se na mosola eke
190_0166 ha e le mathe le
190_0168 bokgabo botebo le ho tsepama
190_0169 ha di ame popo kappa
190_0171 ke ho re a se
190_0172 be a di hlatswe a
190_0174 p na ho na le
190_0175 tsepamisetsa ho faneng ka ho
190_0176 eo e e sebelletsang le
190_0183 wa phetelo o pheta pale
190_0186 kamohelo ya ho thonngwa le
190_0187 ya fokolang ya dulang sebakeng
190_0191 re a se bonye le
190_0193 ba re ke please call
190_0194 e molemohadi ya ho theola
190_0196 nyamella ha nyenyane mmetsong a
190_0197 mpehile merebele e le ka
190_0199 le ausi ha ba a
190_0200 rugby world cup
190_0201 ka ha ho e na
190_0202 le wa makgowa o itshasa
190_0203 a qotsitsweng a ne a
190_0204 ho ba ka ncop ke
190_0205 nnetee nee yeere ha ke
190_0208 se o lokile ba crime
190_0211 a se ke a ikutlwusisa
190_0212 o ne a itulela hahabo
190_0213 ha o re ha o
190_0214 ba batsho le ba basweu
190_0215 a koduwa eo e nyarositseng
190_0216 di jehang ba kgonang ho
190_0218 sulafalletswe le ho ja ho
190_0219 mmotsa a re o ne
190_0220 ba se ke ba hema
190_0221 hard disk drive
190_0222 se ke itshwetse mokgubu ka
190_0223 ho ameha ketsahalong ya botshwasi
190_0224 seroki sa morenengha ho etellwa
190_0226 foreign language film
190_0228 e ba ruisitse maqheka a
190_0230 ba kopanyang ba kopangwa ke
190_0231 disebediswa le ho fokotsa bofuma
190_0232 sa phetla le ho phetla
190_0233 ka therisano le baahlodi le
190_0235 ho mo lwantsha ha ho
190_0236 ho mofani ke mohato wa
190_0237 sebini se binang se le
190_0238 ya dikgetla ho kutwa ha
190_0239 ya ho ba le ditshwaetso
190_0240 persal e fumaneha setlankaneng sa
190_0241 le di arv di ka
190_0242 butse mokete ka pina ya
190_0244 ela ho ya tshedisa ba
190_0245 se o le pshasha ho
190_0247 ka moamohedi wa setswakantle ho
190_0248 ka motswetseng ho sa hlonngwe
190_0249 ho hira ikopanyeng le moeletsi
190_0250 sa tsitsang le ha e
190_0251 ne a utswitse diphahlo lebenkeleng
190_0252 oo e ho ba le
190_0253 o se ke wa tlohela
190_0254 ho raleng le ho phethiseng
190_0255 ka ha o tlwaetse ho
190_0256 ke lesira le le pudutswana
190_0257 ke ipona ke hlalefile ke
190_0258 ke tlala morolo ha e
190_0259 career home run
190_0260 be le tshwano ha ho
190_0262 kgafetsa le kgafetsa le diseneke
190_0263 o ne a sa mo
190_0265 ho hiruwa ha ka potefoliong
190_0268 american film producers
190_0270 ba tshedisehe o na le
190_0271 se o le ntata nnyeo
190_0274 ha e ba ho na
190_0275 se o ngodisitse ha ho
190_0276 ha ramonate o ne a
190_0277 ne ba sa di fumantshwe
190_0278 o se o badile palekgutshwe
190_0283 e rerilweng ka lekgetlo le
190_0284 tshwanang le mekitlane ya thepa
190_0285 dipuisanong e ne e le
190_0287 anc ha ba ne ba
190_0288 ba lefitori ha se bonwe
190_0291 in die land wat die
190_0292 mmamenotwana towe o se ke
190_0294 ho south african revenue service
190_0295 eo ha e na mokoka
190_0297 lehlwa ha le qhibidiha dithabeng
190_0298 ne a imakaditse ka ho
190_0299 a mebileng ha di bolawe
190_0300 a ba a ba le
190_0303 pheo ke ho hlakisa ka
190_0304 ka ho ya ka sekala
190_0305 ya ho tiisetsa ditshaeno le
190_0306 lengolo la semmuso mohlahlobi o
190_0308 dilomo meru e kopaneng diphulana
190_0311 ho itshetleheng ho sa hlokeheng
190_0312 ka ke iteletse ho lwana
190_0313 re ba hlalefile senase pakwa
190_0323 mo qhoqhang ho intlafatsa ho
190_0326 ka ho toba akhaonteng ya
190_0327 ho phatlalla le rephaboliki ya
190_0328 le ho re ho ya
190_0329 ya be e re elellisitswe
190_0330 mareo le mererong ya diprojekte
190_0331 ne e se e sa
190_0332 lebile botsitsong le katlehong kgatelopele
190_0334 ne re ka ra bitsetsa
190_0335 di be le tatso e
190_0336 hlwatswa sebae ka letoto la
190_0338 ananelwang le ho tlotlwa dibakeng
190_0339 na o ne o a
190_0340 ha a na ho ka
190_0342 ne ke thabile ho re
190_0343 ya kgohlong ka ha e
190_0345 seqo o se ke wa
190_0346 san diego chargers
190_0348 a sa o tlwaelang ho
190_0350 se a kwenehetse kgarebe ya
190_0351 lora a haola meruemetala ya
190_0352 la jse le ho rekisetsa
190_0355 states air force
190_0356 ho se ho fanwe ka
190_0357 dumelle le be le ele
190_0358 late bronze age
190_0359 ha di silafatswe ke ditshintshi
190_0360 dikgohola difefo dipula le marole
190_0361 he ha e ne e
190_0362 ya kutlo hcps boenjinere ba
190_0363 ha ba se ba tshwanelaha
190_0364 ho felehetswa ke memorandamo le
190_0365 prince edward island
190_0366 michigan state university
190_0367 strategic air command
190_0369 a le khwaereng e ka
190_0371 free trade agreement
190_0372 e sa kgahliseng ya dingangisano
190_0373 kgoka hano ya dikahare le
190_0374 world trade center
190_0375 ho ya seteisheneng sa sepolesa
190_0381 persian gulf war
190_0383 natural resources include
190_0384 maqephe a fuperweng ke patanta
190_0385 bonahetse tumellanong ya harare eo
190_0386 absa fnb nedbank a beyang
190_0387 a le boyeneng a hlaheletse
190_0389 ho ya ka diphapang na
190_0390 a re se a ba
190_0391 le ho re o bope
190_0392 skweyiya jj ba dumellaneng le
190_0394 e ne e le disontaha
190_0396 kgeswa le ho bitswa mabitsobitso
190_0397 ho lebela dithuso mekga e
190_0398 low earth orbit
190_0400 na re ne re itshwenyetsang
190_0401 ke ba ba le kgaoho
190_0402 phethiso di na le nyehelo
190_0403 le nna ke le tjena
190_0405 le diyalemoyeng re hlokomediswa ka
190_0406 o se ke wa ikgatella
190_0408 o kgothetse ho na le
190_0409 o re re qhelele moketjana
190_0410 tlalehong eo ha re a
190_0411 e nwelella ka nyollo e
190_0412 quantum field theories
190_0415 eo ke ikemiseditseng ho shwa
190_0417 diindasteri demokrasi bokomonisi le bongangele
190_0418 mafosisa o be o tshehetse
190_0419 wa polotiki o na le
190_0420 ka ba ke re o
190_0421 ho paka ho re se
190_0422 buddhism
190_0423 ha e phethwe ha ba
190_0424 bitswang long walk to freedom
190_0425 multi purpose community centres ke
190_0426 tshohang e tshwasitswe marabeng a
190_0427 ba itahletse faatshe ba le
190_0428 ho a le b ha
190_0430 ba entse sakanalankope ba tshwarane
190_0431 tj hata ya tshe beletso
190_0432 o se a shwele dikweta
190_0433 science fiction novels
190_0434 e ke e mo phekole
190_0436 liberal arts colleges
190_0437 ka ekaba ho se ho
190_0438 shejulu e phatlaladitsweng koranteng ya
190_0440 ya sethethefatsi tjhefu ya khemikhale
190_0441 o phuthile le mehaswana ya
190_0443 wa semetletsa wa ho le
190_0446 harvard university alumni
190_0448 ke se ke dikelletse le
190_0450 mola qetellong ya karolo ka
190_0451 a se a tobane le
190_0452 le beile pelonghakana a ba
190_0453 matswadisa hlobolang mese eo le
190_0454 sekgopi o ka tshepela ho
190_0455 ho kenyelletswa le la keresemese
190_0457 itoile ka bowena mohlomong le
190_0458 president abraham lincoln
190_0459 ba a ka ba mo
190_0460 ya e ekeditsweng ke s
190_0461 di romelwe ho ya tjhaelwa
190_0464 le mtshwao a tshupo a
190_0465 re ha a se a
190_0466 eo o e hlokang e
190_0467 mafura peterole e nyoloha ka
190_0469 a tshabehang a lefifi ho
190_0470 itlama ho se behe saps
190_0471 e ka letsohong le letshehadi
190_0472 felehetsa ho kgutleha hlakoreng la
190_0473 ba ka hodisang dipoelo ka
190_0474 ho ne ho ithabiswa ka
190_0476 cricket world cup
190_0478 bapalami a sa ba fe
190_0480 ba se ke ba nyantsha
190_0481 ba bangata kamoo ho ka
190_0484 e lethwethwe o elellwise mokomishenara
190_0486 le ka madungwadungwana ho ya
190_0487 iswe ho ba baholo le
190_0488 e sa le e qheletswe
190_0489 profeshene e se e kgathile
190_0490 wa mautse ha dubeha ha
190_0491 eo ho buuwang ka yena
190_0492 eo o e sebeletsang e
190_0493 hadiindaseteri ho arolwa ha diindaseteri
190_0494 le maqheku a lenyalong ba
190_0495 ka ho nyaroha e e
190_0496 re ye re sitele jehova
190_0497 batswadi ba ne ba tsebiswe
190_0499 tadimile ka leihlola kaine ho
190_0500 re e se e le
190_0501 na ie seoa se unang
190_0503 ha o qeta o be
190_0505 be le ho fapoha dipallong
190_0506 ha a na anyalwe a
190_0507 e ke be e rutile
190_0508 ya babokelli ba dikoloto ba
190_0512 bodileng matshwele a sollang a
190_0513 a di utlwisisang le ho
190_0516 ka hanelwang ho ba le
190_0517 council for natural scientific professions
190_0518 dikhampaning dikoporasing le baleming ba
190_0519 ne di na le ho
190_0524 ba makatsa ka ha ba
190_0525 ha a sa e fuwe
190_0527 cite journal title
190_0529 re re re qhwaolla kobo
190_0530 southern african development
190_0532 lerumo ho kgabola kanono moela
190_0533 obitjhuari ka ha le ne
190_0534 le ho se utlwane bara
190_0535 hatabatsabatho ke ha a le
190_0536 mohlomi o ne a ithatela
190_0537 ho tiisetswa e le ya
190_0538 mafellong a mesifa di ba
190_0539 a mo jakisa jareteng ya
190_0540 re se mo tlatlapile se
190_0541 ba angwang le ho tshwaetswa
190_0545 ho re ho se be
190_0548 a butswelana ka tholwana le
190_0549 ke sa na boikgethelo ha
190_0550 ke batlatlapi ba ikotlang sefuba
190_0551 e re ke o bolellennete
190_0552 ba reke dijole ho patalla
190_0553 ke mona o se o
190_0555 million years ago
190_0556 le manollong ho ikamahantswe le
190_0557 tlhwekiso ya matlwana ke le
190_0558 naval air station
190_0559 re re ye wits ka
190_0560 ho registrar of animal improvement
190_0561 ka ke sa tsilatsile le
190_0562 ho ne ho se ho
190_0563 ba sireleditswe tlhekefetsong le tlontlollong
190_0564 o e na le sehatsetsi
190_0565 di fumanehe khomputeng ikopanye le
190_0566 ba a phehelwa dinama le
190_0567 east asian countries
190_0569 le ho phomosetsa bamemuwa ba
190_0570 makuleke kruger national park dinaheng
190_0571 a setso le a sepolotiki
190_0572 ka letlotlo le siilweng ke
190_0575 kgolong ya ka le tshiung
190_0576 motsotswana ha e le difelekwane
190_0577 west african states
190_0578 uke ichi ni san ji
190_0580 ha e le ee dihora
190_0582 le ho akofisa bonamo le
190_0583 ba mo epela ba mo
190_0584 mokuru o se o sibile
190_0585 ba kgethetsweng ho ba diroki
190_0586 e be re ke ke
190_0587 original game boy
190_0588 ha ba hlomphe mosuwe ya
190_0589 a tsweretse sa tweba e
190_0590 ke ne kekopa matlaa ho
190_0591 e sebeleditsweng kathata le ha
190_0592 ke ke ha o tswela
190_0596 independent media diversity trust ha
190_0597 e sebetswa letsatsing leo e
190_0598 ntjha le diphetolo ngodisong e
190_0601 nkga a re phu ke
190_0602 science fiction fandom
190_0603 lossless data compression
190_0604 e etsetswang bafumanehi le dihlopha
190_0606 be o itheola seriti ha
190_0607 ka mahahapa tlatlapo ya ditsha
190_0609 le ho sireletsa lehlakore la
190_0610 ikamahanya le ba reretsweng ditaba
190_0611 founung botoloki ba founu bo
190_0612 di lekole kgafetsa re lokise
190_0613 le ho ba nolofaletsa ho
190_0615 ka disutu o ne a
190_0617 di hlaphohetsweng ba ne ba
190_0619 sa ho ba le ditlhahiso
190_0620 hapelefatshe le ke ke la
190_0621 le polao eo e sehloho
190_0622 ho nnetefatsa lekunutu la molli
190_0623 ba dikapeso ho ba diporofeshenale
190_0624 ha e betsetswa ka fensetere
190_0625 ho etela tulo eo ho
190_0626 be e bonolo e napahetseng
190_0627 ke ya sa ba hlalosetseng
190_0628 ba se ba tshwasitse tlhapi
190_0629 ha o se o fihletse
190_0630 qatile mohatla kobo di fokaela
190_0631 eo ba be ba be
191_0001 ha e ke e binwa
191_0002 le ne le ba etseditse
191_0003 e na le boithati bo
191_0005 a mo laole le ho
191_0007 independent media diversity trust ha
191_0008 e sebetswa letsatsing leo e
191_0009 ntjha le diphetolo ngodisong e
191_0010 tlisitsweng ke bokoloniale aparteite le
191_0011 ho ya dikopanong le disimphosiamong
191_0012 nkga a re phu ke
191_0013 science fiction fandom
191_0014 lossless data compression
191_0015 e etsetswang bafumanehi le dihlopha
191_0016 ba srsa ho ya ka
191_0017 be o itheola seriti ha
191_0018 ka mahahapa tlatlapo ya ditsha
191_0019 ha ke re o a
191_0020 le ho sireletsa lehlakore la
191_0021 ikamahanya le ba reretsweng ditaba
191_0022 founung botoloki ba founu bo
191_0023 di lekole kgafetsa re lokise
191_0024 le ho ba nolofaletsa ho
191_0026 ka disutu o ne a
191_0027 se ntshitsweng ke laboratori e
191_0028 di hlaphohetsweng ba ne ba
191_0030 sa ho ba le ditlhahiso
191_0031 hapelefatshe le ke ke la
191_0032 le polao eo e sehloho
191_0033 ho nnetefatsa lekunutu la molli
191_0034 ba dikapeso ho ba diporofeshenale
191_0035 ha e betsetswa ka fensetere
191_0036 ho etela tulo eo ho
191_0037 be e bonolo e napahetseng
191_0039 ba se ba tshwasitse tlhapi
191_0041 qatile mohatla kobo di fokaela
191_0042 eo ba be ba be
191_0043 baokajeno e sengele dikgutsanakgudu ke
191_0044 ho akaretsa le ho kgema
191_0045 gold medal recipients
191_0046 numeric character references
191_0047 re roba dipelo he moradia
191_0048 sebeditsweng lehlaso o be o
191_0050 eleng pharela le ha ho
191_0051 molaong melawaneng le molaong o
191_0052 tlelapo ya lantjhe b o
191_0053 tjheseho ya ho ka di
191_0054 a ka kgaotsa ho tsuba
191_0055 dipatlisisong a ka bitsa dipaki
191_0056 warring states period
191_0057 ne a tsebahala ka ditlolo
191_0059 a ananelwang ke ldab le
191_0060 mmamesa poeyana re senotswe re
191_0061 ho natefisa le ho hatella
191_0062 ha re e lemeng re
191_0063 ke ne ke sa kgolwe
191_0064 a phakisa ho o nyahlatsa
191_0065 makotofa a tjhesang ke a
191_0066 le utlwisisana a ka le
191_0067 ha ho bonahale e le
191_0068 lebitla ee ho ne ho
191_0070 national football league
191_0071 le ya ho ya ho
191_0072 ne a ka feresa le
191_0073 ya metara wa karata le
191_0075 ronewa o ne a sa
191_0076 eo e feletswe ke ho
191_0078 lene le sa thapiswake boikaketsi
191_0080 le ka ngamoha la mo
191_0081 ralehlatsa o ne a tahilwe
191_0082 le ha e le mariha
191_0083 o se ke wa ya
191_0084 american film institute
191_0085 charles sanders peirce
191_0086 ho utsuwa mabenkeleng a ka
191_0087 feleheditsweng kemoya obatang le ho
191_0088 ho qoswa ha mokhomishenara wa
191_0089 president lyndon b
191_0090 nyalle thollo bafokeng ba mo
191_0091 banna anthe perekisi e monate
191_0092 fixed point theorem
191_0095 ka meferefere ha ho se
191_0096 wa sejapane ho ne ho
191_0097 los angeles times
191_0098 monene ha le ne le
191_0099 sa kgahlwe ke morwetsana o
191_0100 potlakileng le o sebetsehang o
191_0101 international criminal tribunal
191_0102 qobe le ho nena dinyehelo
191_0103 mafose dibini tsekgolodi ne di
191_0104 re ka ra iketsa marematlou
191_0106 eo o se a re
191_0107 ba metseng eo eseng ya
191_0108 hwa jewa dikuku le nama
191_0111 ka moro metsi a le
191_0112 d mohwanto wa bakganni ba
191_0113 hello world program
191_0114 a re botsietsi ba inehele
191_0116 di sa tsitsitse a re
191_0117 la nkgwebetha la re ke
191_0118 tu ebile ha ho sa
191_0119 saena ho se mo amohe
191_0120 helang ha e sa le
191_0121 ne e le ya ho
191_0123 kgoho e tshwerwe ke mokoeyo
191_0124 ke o ratela bohlalefi ba
191_0125 makubetso le ho ja ho
191_0126 letootong le sa kgaotseng la
191_0127 eo ya tedu di putswa
191_0128 o ne a hlahafetse ha
191_0129 ke sa ka ka botsa
191_0130 ha senyeha ka holong ya
191_0131 adriaan a mema borakgwebo ba
191_0134 o ne a hlodiya ramaqiti
191_0135 re le ha e ne
191_0136 occupied cypriot area
191_0137 digital equipment corporation
191_0138 iran iraq war
191_0140 ha ho le hongata ho
191_0141 o ne a sa re
191_0142 le e governance e learning
191_0143 bo sa amoheleheng le ho
191_0144 ya kotulo eo ba e
191_0147 o hlekefetswa ka ho shatjwa
191_0151 mmata le sa tshelweng ke
191_0152 ba ka susumetswa ho ya
191_0153 high school alumni
191_0155 ho halofo ya didika lemetseng
191_0156 e ke ke ya inkelwaka
191_0157 mo tlatsela ha e le
191_0159 science fiction hall
191_0160 dikotsing hotshwanetse baikenye molatong le
191_0161 national football team
191_0162 mosima ha o tlale ke
191_0163 le ha e le lefe
191_0164 thelevesheneng le seyalemoyeng mananeoa behelwa
191_0166 ngwananyana waseithati ya tshepileng ho
191_0167 e totobe tseng sebopehong sa
191_0168 ka ho o tjodietsa ka
191_0169 palamenteng ba ka ba le
191_0171 jwala o mmitsa kgowanatshwana lejakane
191_0172 mahloko a kgaello ya ayodine
191_0175 battery park city
191_0176 hamorao ho ye ho etsahale
191_0179 ke enwa o se a
191_0181 russian orthodox church
191_0182 o ne o theosa eo
191_0185 gravitational potential energy
191_0187 le ho se latelwe ha
191_0188 ka online lefatsheng lohle ka
191_0189 ya buka eo o ithutileng
191_0191 party united states
191_0192 eo nalane le jokorafi di
191_0193 late twentieth centuryodowska curie
191_0194 geologic time scale
191_0199 mmathulare hammoho le qaka eo
191_0201 sa kgotsofatseng ya cjs ha
191_0202 a ho enta le ho
191_0203 states district court
191_0204 united states house
191_0206 e tsamaelane e le ho
191_0207 tswekere ya illovo e tshweu
191_0208 ka boyona e ke ke
191_0209 le ha ho se ho
191_0210 ke se sengangele a ka
191_0212 box office success
191_0213 ho borithane ho ba ka
191_0214 ke iphetola setshehisa sa rammolotsi
191_0215 re o fiela phaposi ya
191_0216 le ke le nthuse ho
191_0217 united states supreme
191_0218 hla a ala leleme phate
191_0220 moetsi ketso moetsuwa katoloso jj
191_0221 o ne o sa mo
191_0222 ka ho ngollwa ka ha
191_0223 na le matla a ho
191_0224 ke tjhefo e kwaeng e
191_0225 ha o re re bitsetse
191_0226 a thupelo diphetolelong le tlhaolong
191_0227 a re ke la dipoding
191_0228 ya bokenadipakeng ya tonakgolo e
191_0229 bakae ba amehang tsamaisong ya
191_0230 president franklin
191_0231 o sa qoqweng ke dipapiso
191_0232 e sa nepahalang e sefuwe
191_0233 o se a mo kopetswe
191_0234 re tsho ho ne ho
191_0235 ha di sa le setlwaeding
191_0236 la mammila le okametsweng ke
191_0237 o ithetsa ka tsiemokopu e
191_0238 morabaraba sethetsabadisana ha ho bolelwa
191_0240 le sa le letjha ho
191_0242 ke eo o kwenehetswe ke
191_0243 ka ha ho bontshitswe tekodisiksong
191_0245 greenhouse gas emissions
191_0246 yom kippur war
191_0247 ne o kopile koranta ho
191_0248 states coast guard
191_0249 polakwang dihekeng le mamating a
191_0250 clarify date january
191_0251 ho thweng ke hotsitsi eo
191_0252 ke ikutlwa ke imolohile moyeng
191_0254 a feheletsana ba a ithoka
191_0255 di hlwekile di sa tshwehle
191_0256 ka taelo ya tshireletso ya
191_0257 le ka mohla o le
191_0258 ie seoa se unang ho
191_0259 ne ho e na le
191_0260 a fetotswesekatana semamina seiphumolo sa
191_0261 dihlekehleke madiboho marokgo le metjhophoro
191_0262 o sebedisitse melao e hlokehang
191_0263 ne a bolelle mmae ka
191_0264 letlaila le ho tlaila moreneng
191_0266 le se ke la bolellwa
191_0267 a ne a hanela monyaduwa
191_0268 ya boingodiso e ipitsang ka
191_0272 mabothobotho a bonojana bo tsotwang
191_0273 ho santaco re ke ke
191_0274 ekasita le ho nyediswa ke
191_0275 billion years ago
191_0276 o ne a tswallwang le
191_0277 ya ka ka kglofalo e
191_0278 se kgabole ha a boya
191_0280 sa ho ntshetsapele ikonomi e
191_0282 o amohetsweng ka ho qoholleha
191_0283 adelaide tambo o ne a
191_0284 eo re mo tswetseng o
191_0285 se e le wa semanyamanyane
191_0286 supa ku tlwisiso e kgabane
191_0288 ho ba le masimo ao
191_0289 na le tumelo e feletseng
191_0291 o ne a pudukane ho
191_0292 o ne a le bohareng
191_0293 air traffic control
191_0294 ho hlahlobisa le ho ntjhafatsa
191_0295 apesa ho kupetswe bofeela ba
191_0296 npo le ha ho le
191_0298 ke sehwai sehwai se kgothetsa
191_0300 ya ho potlakisa kgokahanyo ya
191_0301 ha o se o lemasapo
191_0303 ba ruisitse maqheka a bohlalefi
191_0304 ho netefatsa ntlafatso e lekaneng
191_0305 a thusana ha le le
191_0306 ne bangongoreha meyeng ha ba
191_0309 ba re lesokwana la ya
191_0310 oo o be o mo
191_0311 o ikenya tshotso dinaleng o
191_0312 a seterateng a ne a
191_0313 momahanyo le ho boikamahanyo ba
191_0314 e a nenwa naheng ya
191_0315 e ne e le la
191_0316 ha ke re o utlwile
191_0317 hlokahalang le matsapa a ho
191_0318 e le o kolotang ka
191_0319 ka motjhanae ontse a hotse
191_0320 ya penshene le ya ho
191_0321 lefshwang ka tlaase le baithaopi
191_0322 football clubs established
191_0323 o e sa le ba
191_0324 natural gas reserves
191_0325 c ho ngangisana le ho
191_0326 o ka wa e noha
191_0329 ka ho ngolla moromowa ho
191_0330 a itlhompholle ka ho phetela
191_0332 o na le kgohedi e
191_0333 le moputswa pududu a sa
191_0334 o ne o ka ba
191_0335 di sa re hlahele re
191_0336 ha di hlophiseditswe ho ka
191_0337 mo kwalamolomo ka seatla sa
191_0338 bo ne bo hwebisana le
191_0339 o mphara ka melato eo
191_0340 e hokahaneng tlwaelo ya ho
191_0341 theilweng ka ho ya ka
191_0342 melaetsa ya ditshoso ya ditshokelo
191_0343 na ho sehwajwang ho rokwa
191_0344 a ikitlaheditse ha e le
191_0345 re ka e fihlelang ke
191_0346 thothokiso le ya sengolwa sa
191_0347 ho tsamaisana ka ho lekanale
191_0349 e le ha ho jewa
191_0350 sports clubs established
191_0351 lokiswa ha masalla a setopo
191_0352 ho be le phumantsho e
191_0353 boahisani le european union maelana
191_0357 a b c d o
191_0359 ke kene morerong oo wa
191_0360 letlole la ho ya pensheneng
191_0361 world heritage site
191_0362 kgothaletswe ho iqalla le ho
191_0363 rarahane e na le ditumelo
191_0364 e moholwanyane ha a kopuwa
191_0365 be ho petsohe le mafika
191_0367 ya bosebolelo ya ho qhelela
191_0369 ka phaposing ya ho phomola
191_0370 citation needed april
191_0371 thobalane ba ne ba sa
191_0372 tafoleng eo ho tsebiswang ho
191_0373 ka maleng komishenara o ne
191_0374 le se le mo rutile
191_0375 ka mabaka a utlwahalang ho
191_0376 human rights violations
191_0377 ho re ha e a
191_0378 e le mojalefa ya ngodisitsweng
191_0380 le baphedisuwa ba ka e
191_0386 mookgo o ne a iballa
191_0387 containing video clips
191_0388 a post graduate di institjhusheneng
191_0389 methodist episcopal church
191_0391 o re ha o ka
191_0394 ne o le bolepolepo o
191_0395 institushene e tshepuweng ka ho
191_0400 a rarahana di a lohellana
191_0401 kuruetswa ke ho re a
191_0402 ba hlwauweng ka ho ya
191_0403 eyes wide shut
191_0404 high seas fleet
191_0405 le bitleng la mmaletrato le
191_0406 kekgalefo ya re ha mmatshokolo
191_0408 ha katiba e le e
191_0409 ke utlwile bothabiso ba re
191_0412 ho phethela boikwetliso ba thapameng
191_0415 la ho se utlwane ka
191_0416 ho ka be ho sa
191_0417 ba se lemohe boteng ba
191_0418 tseno ka ha di ke
191_0419 round table le rotary le
191_0420 ha e a etswa ho
191_0421 ba bolotsana ke re ha
191_0422 ka ho qolleha ba kopanye
191_0423 ho ba ramotse tikolohong ya
191_0424 tefo ditshehetso le menyetla e
191_0425 ne a se a a
191_0429 se tsotellang le se tsepamisitseng
191_0430 wa mooki tliliniking e ka
191_0431 ho ba le kano e
191_0433 ya qositsweng ya lokollotsweng ka
191_0434 le mosenekeng ke ha di
191_0435 ke o tlele ka bohlanya
191_0439 trust ya ntsahetsopele le ka
191_0440 e se e le motsheare
191_0441 etlare ha ke tea kalala
191_0442 ya mo fenetha ha ba
191_0443 mekga e thusang ka ditjhelete
191_0444 ho ne ho tsohwa ka
191_0445 bolaoding ba lekalala fet re
191_0446 sa qoso le bohanyetsi mahla
191_0447 e kgotjwa e le maoto
191_0448 ho ja ha o na
191_0450 tshware babelaelwa e be ba
191_0451 ha letsohole fepela mmetso morenao
191_0452 tshenyeho ya mesifa mascular dystrophy
191_0453 kgelohang tokelong ya bohato bofe
191_0454 ho notlellwa ha di sa
191_0455 ho yahae e ke ye
191_0456 summer olympic games
191_0457 sa sebetseng mmba be ba
191_0458 ho ile ha ba le
191_0460 ya makwalata e ka fodiswa
191_0461 ka nepo ho fetisa ka
191_0462 african development bank
191_0463 official diplomatic relations
191_0465 hugo award winning
191_0466 ema wa opa diatla ha
191_0467 ho dumedisa mmamoruti ha a
191_0468 e be ke mokgethi wotong
191_0469 boqhetseke le ka bohlwahlwa ha
191_0470 thehileng matleng le mananeong a
191_0471 a ikemisetse ho reupella le
191_0472 wa matsibolo a se a
191_0473 le ha hone ho le
191_0474 otshwanetse o hlahelle kgotla ka
191_0475 pitsa e phehang gauta ka
191_0477 lebisitse hokae ha o ipoledisa
191_0478 ba intshang sehlabelo ka ho
191_0479 barutwana le matitjhere ba be
191_0480 tshwenyehile o se ke wa
191_0481 la dikgokahano ba in communications
191_0482 ditshila ya ho bapala ka
191_0484 le tshwantshe le la ka
191_0485 johann sebastian bach
191_0486 se nw e seno se
191_0488 e kgwaetse ka lehafing a
191_0489 eo ba mo feheletsang ka
191_0490 sa mo re shwato nkong
191_0491 human rights abuses
191_0492 nafvsa e na le phaposi
191_0493 ba pitikisana ba ba ba
191_0494 ya polokelo le ka kenngwang
191_0496 sa qeaqee le ho qeaqea
191_0498 ba ba le kgaoho ya
191_0500 congressional gold medal
191_0501 atomic energy commission
191_0502 se batlwang ke takadimane ba
191_0503 ha o seilwe ke ba
191_0504 ba le phehiso e tlotlehang
191_0505 ne ba ye ba re
191_0506 ba pokeletso ya basebedisi ba
191_0507 aung san suu
191_0508 wat sal my nou te
191_0510 buisanang le ho ngangisana ka
191_0511 disebo o ipolaile a ba
191_0514 irish republican army
191_0515 phe thetsweng se baleha ha
191_0516 ne o ntjodietsa ha o
191_0518 re e ka mo loma
191_0519 mohlomi o ne a etelwe
191_0520 sa nkge leseporo le kgutletse
191_0521 hlotjhwa ha ba di shebelletse
191_0522 e nngweba ne ba bonesaka
191_0523 se a kgahlilwe ke ka
191_0524 ho se ho ho le
191_0525 le ha a ne a
191_0526 mokgahlelong o ka tlasenyana koporo
191_0527 e ka ba le ditlamorao
191_0528 ntlheng le ha e le
191_0529 roman catholic bishops
191_0532 e lelefalang le ho kgutsufala
191_0533 na le seroto se sa
191_0535 tebetebeng eo o nkentseng ho
191_0536 a welang makaleng a tshwanang
191_0537 moporesidenteha ho na motshwaruwa ya
191_0538 ka bokamoso ba ka ha
191_0539 di sa le setlwaeding yaletsetsa
191_0541 afidavite e tswang ho setho
191_0542 matshwafo a se a uba
191_0544 ha re lekola dikopo le
191_0545 ho re ho se ho
191_0546 e re pududu a sa
191_0549 le ho ipapisa le thomo
191_0550 le ho tshehetsana le ho
191_0551 le ja podi ho fetafeta
191_0552 le ho se sebedisane le
191_0553 tsamaiso ya sekema le ditlhophiso
191_0554 tjhotjholosa ba ne ba le
191_0555 e se e ie dibeke
191_0556 le apesa ho kupetswe bofeela
191_0558 samuel taylor coleridge
191_0559 didibeng babalang ba re le
191_0560 bavouti ba ingodisitseng ba tlohileng
191_0561 ntjapedi ha e hlolwe ke
191_0562 wa ket sahalo ya ho
191_0563 national historic site
191_0564 malapaa utlwilengbohloko kabaka la horeemongwa
191_0565 ya ka tlelaseng setsing sa
191_0566 a ka ngodiswa e le
191_0569 le ho hlahisa dipalopalo dikhopi
191_0570 e ka ba le makukuno
191_0571 e raduweng e se e
191_0572 mo tshabang ho nkgisetsana mahafi
191_0573 o ka tlasenyana koporo ho
191_0575 mme o sehe mola qetellong
191_0576 john maynard keynes
191_0577 tjhetjha a ba a tjhetjha
191_0578 re ba memmeng ka ho
191_0579 ho bolokwa le ho hlokomelwa
191_0580 ka theko o kgutsa motsotswana
191_0581 re lebatswadi ba banabana le
191_0582 ya mo hatelletseng e ba
191_0584 o re qobella ho hasanya
191_0585 dikabo ka ho ya ka
191_0587 national security council
191_0588 ya vat vendor search ke
191_0590 dikgwerekgwere le monyediso ya mantle
191_0591 o ne a hlabile dioka
191_0592 boikopelo re se re sa
191_0593 eo re ka mo kgothollang
191_0596 re be ngatanngwe ke pheto
191_0600 o sa dumellwang wa ho
191_0601 council for natural scientific professions
191_0602 dikhampaning dikoporasing le baleming ba
191_0604 le ho seholla mmateboho habohloko
191_0605 ke se ke ekwa ke
191_0607 a ka be a sa
191_0609 ha a sa e fuwe
191_0611 cite journal title
191_0612 ha eo a se a
191_0613 re re re qhwaolla kobo
191_0614 southern african development
191_0615 ya b le ya c
191_0616 lerumo ho kgabola kanono moela
191_0617 obitjhuari ka ha le ne
191_0618 le ho se utlwane bara
191_0620 mohlomi o ne a ithatela
191_0621 ho tiisetswa e le ya
191_0622 mafellong a mesifa di ba
191_0623 a mo jakisa jareteng ya
191_0624 re se mo tlatlapile se
191_0626 na o kgathatswa ke lesokolla
191_0629 ho re ho se be
191_0632 a butswelana ka tholwana le
191_0634 ke batlatlapi ba ikotlang sefuba
191_0635 e re ke o bolellennete
191_0636 ba reke dijole ho patalla
191_0638 ha ba ne ba sa
191_0639 million years ago
191_0641 tlhwekiso ya matlwana ke le
191_0642 naval air station
191_0643 re re ye wits ka
191_0645 ka ke sa tsilatsile le
191_0646 ho ne ho se ho
191_0647 ba sireleditswe tlhekefetsong le tlontlollong
192_0005 chicago white sox
192_0011 le ho mo qhobella majwe
192_0016 ke maranran g a fepelang
192_0018 british overseas territory
192_0019 le dintwa vmme e ne
192_0020 ho hlotjhwa ha ba di
192_0022 o tswile kotsi e mpe
192_0024 largest ethnic group
192_0026 roud ya wto re kgodisehile
192_0030 di anti retroviral le ya
192_0031 kgutle a tulatula moriana oo
192_0032 re e hlaolele re sietswe
192_0033 efatshe wa rakebi selemong se
192_0036 ha ho na ho ba
192_0039 e ne e le nonyana
192_0042 lelapeng ho ka ba le
192_0043 molamu o kopane le tshepe
192_0045 oo ho ne ho le
192_0046 badan pusat statistik
192_0049 ho ya mo nkisa mokotla
192_0050 le talente le ho ba
192_0057 kgothaletso ya boikgwantlello le ho
192_0061 ho ya ka mosebettsi wa
192_0064 screen actors guild
192_0065 ho ka iteanngwa le ba
192_0066 bo bo lelele le bo
192_0067 ke ngongorehe ka ha ke
192_0068 ludwig von mises
192_0073 eo o sa e utlwisiseng
192_0074 european union le ahile diphaposi
192_0075 wa ho lahlwa ha dikgwerekgwere
192_0076 supreme court ruled
192_0077 le phehiso e tlotlehang malepeng
192_0078 tsabona metseditoropong ho na le
192_0079 mo hlahetseng mo romelle karete
192_0087 eo ha e ka kgaoletswa
192_0089 ya projekte le kananelong e
192_0090 wa ho hlwekisetsa bommisisi dijarete
192_0094 science fiction convention
192_0098 american football conference
192_0100 international labour organization
192_0101 onelopele ya tjhata ya ho
192_0102 burundi comoros sudan haolo ho
192_0104 le be le dikele na
192_0105 gibbs free energy
192_0108 a ne a le bodutunyana
192_0109 ka sms sms benefit lookup
192_0113 ba matha ka dinkgo ho
192_0114 late eighteenth century
192_0118 o ne a ikane pontsheng
192_0119 madison square garden
192_0122 se ne se na le
192_0123 ha ke re re le
192_0124 le sa le lelelele ka
192_0126 ho re moreneng ho hlahile
192_0127 a qela holeoto o ne
192_0130 saenneng wili ya sethato ha
192_0137 matsete a bee a thekiso
192_0138 ka ho ya ka ho
192_0141 le ho phutho llwa ka
192_0144 english civil war
192_0147 e le o unneng ka
192_0149 sedulwamatswapong ha ho le hobe
192_0150 civil class
192_0151 mesi mehudi dikgase le diphofudi
192_0153 watshomong ha a ne a
192_0155 leru le lefubedu t w
192_0156 chief executive officer
192_0160 le hamohlomong o ne o
192_0161 e mehlano ya dilotho ho
192_0162 seturupu se se kgubedu botlolwana
192_0165 se mo ise yunivesithing o
192_0167 australian air force
192_0168 western roman empire
192_0169 o re ho a be
192_0170 phatladitse masedinyaneng dithelevishineng le dibukaneng
192_0175 e itlhalosa e qadilwe ke
192_0177 bo se fete leqephe le
192_0179 le lekalana la bongodi ba
192_0180 na le manyofonyofo a swabisang
192_0181 ho ya ka kutlwisiso ya
192_0182 poho ya mokgerane e ka
192_0183 a se a mo tlamme
192_0184 cite press release
192_0185 ho etsa bonnete ba hore
192_0186 o semena o felletseng o
192_0187 sekreste mohlolohadi o na le
192_0188 ha o pepeneneng o ka
192_0189 sa thapiswake boikaketsi bo kgemang
192_0190 re qhau a mo sudubanyafatshe
192_0191 unrestricted submarine warfare
192_0192 wa thuto le thupello e
192_0193 le ha e na le
192_0194 ha ke sa ka ka
192_0195 moepa oo ke tshwanelwang ho
192_0196 ka ha ho ne ho
192_0197 e ho na le methwaela
192_0198 mmampontsheng ha o lelemenemene le
192_0200 pope pius
192_0201 seratswana sa d ha e
192_0203 ho ithuteng le ho rutweng
192_0204 le adv j de lange
192_0205 ya remittance advice ya nothisi
192_0206 american football league
192_0208 ntsi ba se ba e
192_0209 wolf whistled le ho betwa
192_0210 ho ya ka dikarolwana le
192_0211 mokganni eo o ne a
192_0212 hose phahle makunutu abonaj k
192_0213 le sa tlohe phofung ya
192_0214 e tshwarellang e kgodisang le
192_0215 inspector of mines ciom ya
192_0216 khompuyuteng a ke ke a
192_0217 kutu ya sefate e le
192_0219 lekgethi o be o le
192_0220 re ha o a thaba
192_0221 enngwe a le akgele ka
192_0222 na ba e rutilwe ke
192_0224 o ne a thabiswa ke
192_0225 hiruwa ha ka potefoliong ya
192_0226 a potlakile le ha re
192_0228 le ho tlanya typing o
192_0229 tsejwalo a ba a re
192_0230 tiehiso ya ho phethela dikarolo
192_0231 ke tshabo tshabo ya ditlamorao
192_0232 ya mmofu e kgonya mokgwabong
192_0233 se ka mpitsa moratuwa wa
192_0234 mixed martial arts
192_0235 tsotella le ho phedisana ka
192_0236 ditshisinyo di ka kgonahala ha
192_0237 camp david accords
192_0238 o ne a re o
192_0239 ya lejwe la ntatao eo
192_0240 olato e ne e le
192_0241 sepheyo ke ho nyalanya boitsebelo
192_0242 e ya hatiswa e saenwe
192_0243 ba qelelwa dinthong ha ba
192_0244 union member economies
192_0245 ya a a nkellang hloohong
192_0247 di so ka di rekiswa
192_0249 wa thoteng tlhophollo le tlhaloso
192_0252 o ne o le lelele
192_0255 ho ya ditameneng shu ha
192_0256 a sa kgarumemmakarabelo motsotsong oo
192_0257 le mmamoruti ya mmoledi ke
192_0258 ba ka nthusang ho itholamorwalo
192_0259 ka ho ya moketjaneng ono
192_0260 le ha ho qaqisitswe ka
192_0261 o ke ke wa etsahala
192_0262 ya tsitsinngwa ke diheshana bomafisa
192_0263 mekotla ya mashala ka veneng
192_0264 na le boipelaetso bo isteng
192_0265 d ho hokahanya le ho
192_0266 etshweu e lebanta le letsho
192_0269 di ka qhalakanngwa le di
192_0270 ba chikano ya sireletsang le
192_0271 letona ka tumellano le letona
192_0272 khampani ya ba mmalwa e
192_0275 ya emia e na le
192_0277 ho bapiswa le ho a
192_0278 ha ba le phokotseho e
192_0279 le ho re kumela ka
192_0280 sa le ka madungwadungwa ke
192_0281 senyehileng e senya thaere ya
192_0283 ha re ne re ilo
192_0286 o ne a ikete ho
192_0289 ne a teane le ditshita
192_0290 public international law
192_0291 international criminal court
192_0292 nyamela ho ba ntidi ha
192_0293 hee ke re o nkgitlile
192_0294 mmetla o kgola o e
192_0295 o lakatsa ho tsebiswa le
192_0296 united states coast
192_0297 le tjhaba le dikela ba
192_0298 ya tuma ka ho reketla
192_0299 ne e le e ke
192_0301 kgauhelo e ne e le
192_0302 israeli prime minister
192_0306 moro kgotla ha o okolwe
192_0307 ho se sireletsehe tshwaetsong ya
192_0311 bofentefente ha ba sekhweshemetsa ba
192_0313 ba bangmme se kaba le
192_0316 o ne a mo susumelletsa
192_0322 le sireletswe le ho notlellwa
192_0323 ka hodimo ha ho tshwauwa
192_0324 la ho ya le ho
192_0327 boitjaro ho tshepahala ha botsamaisi
192_0330 ho nyaroha e e bo
192_0332 le kgelohang tokelong ya bohato
192_0333 e pakuweng ho otsjet ejiwe
192_0336 central african republic
192_0341 ho tu ke sitwa ho
192_0342 ya mmokelli eo wa dikoloto
192_0344 faotsweng ab di na le
192_0346 iv na ho na le
192_0347 e ka bolokwang e tswella
192_0353 digital signal processing
192_0356 le e qhwaelwang sefubeng kgau
192_0357 ha o a dumellwa ho
192_0358 memorandamo le articles of association
192_0361 ne a bitsitse mmantsopa ie
192_0363 ho shatilefensetereng ha re tswaa
192_0366 pedi borarong ya mebuso eo
192_0369 sekametseng ho tshabiseng ka ho
192_0371 e thehilweng bodumeding le dihlopha
192_0374 ho ya bosoleng ho ya
192_0375 deedsweb ka ha ho na
192_0376 ho ka iteangwang le ba
192_0377 ba re ke ho qetello
192_0378 aparetseng e ye e re
192_0379 ya momahanyo ya dikgokahanyo le
192_0380 a se hlokang bophelong ba
192_0382 a lekanang mahlakoreng a mabedi
192_0383 na ntwa e ka fetelletsang
192_0384 dihotele dikhemisi le dikereke a
192_0385 ka ho ya ka minerale
192_0388 ekare re diphoqo ha re
192_0390 recent common ancestor
192_0391 ho ya ka pilir o
192_0393 dithunya le ditanka le difofane
192_0394 nehawu le psa e le
192_0397 award winning authors
192_0400 ho petha ho ya ka
192_0401 treaty organization nato
192_0402 ha e re e a
192_0403 medicine price list mpl le
192_0407 ya pa role ya ho
192_0408 di rarollwa o se ke
192_0409 world trade organization
192_0412 e monyenyaneyena o ne a
192_0414 bahale ba furallwa kebasadi ho
192_0415 e lebi sang tlhalohanyong ya
192_0417 k h r mapenshenara le
192_0419 e tidinya ha engwa ka
192_0420 o a thatafallwa ha a
192_0423 esele ke a o nyonya
192_0425 o ne a sa robale
192_0427 mthethwa o ne a sa
192_0428 cup winners cup
192_0434 mo re qa kgetlo la
192_0438 royal australian navy
192_0439 o feleheditsweng kemoya obatang le
192_0440 ba arohana mmileng o fetang
192_0445 ba sa ntsaneng ba botsana
192_0450 my nou te doen staan
192_0451 a veke ho sa sejetswe
192_0454 joint initiative on priority skills
192_0455 e a amoheleha ya ho
192_0456 ha o hlajwe ke dihlong
192_0457 malomafodisa o ne a sa
192_0458 ntumella ha ke re o
192_0460 mohloding le ha e le
192_0461 ka nate e sa tiyang
192_0462 r j r masiea e
192_0464 northeastern united states
192_0465 di a dumellana mo mahano
192_0467 rejisetara le sehalo di sebedisitswe
192_0468 president theodore roosevelt
192_0469 a sa tahwa o ne
192_0471 ho re na e be
192_0473 kenang toropong e ne e
192_0474 mathakang ba rongwa ba hlatswakang
192_0475 ya ka e duma ditshepe
192_0476 dithupello le ho tlatsetsa ditataisong
192_0481 o a bonahaletsa o ke
192_0482 oo ho wona o hlahisang
192_0483 e sootho e mabanta a
192_0484 ngola ka mongolo o makgethe
192_0486 a ho kholomo a le
192_0487 ha o le manganganyanatjena ke
192_0490 a ho qeka le ho
192_0494 electron degeneracy pressure
192_0497 phetwa e be mmohi o
192_0499 mosha o ne a ba
192_0501 na e fela o arabile
192_0503 rugby union team
192_0504 a o fe resiti e
192_0506 le dikopanong le dipitsong le
192_0507 ke tshepo ho aubuti thabang
192_0508 le ho tsoha o tsohile
192_0510 re a thaba ha ho
192_0511 e ba ho na le
192_0514 o ahlame o mo tonetse
192_0517 e ye e be ka
192_0519 saennweng le ho tempuwa ke
192_0520 dithoko di atisang ho ba
192_0521 tswelapele ho tobana le dipephetso
192_0525 internet service provider
192_0527 le ananela botebong ba maikut
192_0528 la poraevete ke na dipuisanong
192_0529 hong ho dumella mmadi ho
192_0532 weleng mekgeng e hlalositsweng ka
192_0533 dikoduwa le matsholo a ho
192_0535 national baseball hall
192_0538 hule pay as you earn
192_0540 ho se ho se na
192_0542 ka bomadimabe khampane ya boabiele
192_0545 ha a mo kgalemella mekgwanyana
192_0546 be le tsamaisano le bili
192_0547 ke ne ke re ho
192_0549 di ka be di thibetswe
192_0550 ho ka ama sabsidi ya
192_0552 memorial park cemetery
192_0555 a ne a le siyo
192_0558 intelsat nonsignatory user
192_0559 ho ntefa bokae ha ke
192_0560 re na ke a mo
192_0561 le lefubedu t w d
192_0563 a fetang le a sefefo
192_0565 ke ha ho qalwa ka
192_0566 o re ntaramane ee ya
192_0567 ba nyetseng ke mampetje ba
192_0571 ya ka le ba bohading
192_0572 ya cashier e be o
192_0575 be wa ba wa mo
192_0576 le ho se hlomphehe ha
192_0577 roman catholic priest
192_0578 failed verification date
192_0579 ditoloko le ho theheng ditataiso
192_0583 t a ba a mo
192_0584 ka se tshwarwe ka ho
192_0585 canadian pacific railway
192_0586 balehang ho bebofaletsa motshwai ho
192_0587 ke ne ke sa ruteha
192_0588 re ditaaso di tshela mmila
192_0589 ho hlatswa ditholwana le meroho
192_0591 alexander graham bell
192_0593 v v mmapelepele e ne
192_0596 polish lithuanian commonwealth
192_0598 e se e kgutletse ka
192_0602 sa ho vouta sedikeng sa
192_0603 tadimile ka leihlola kaine ho
192_0605 na ie seoa se unang
192_0608 a bala le ho boha
192_0611 e ke be e rutile
192_0614 e ne e le nthho
192_0615 e le o rarahaneng ho
192_0616 bodileng matshwele a sollang a
192_0618 le kutlwisisano dihlotshwaneng ke se
192_0619 o se o mo ja
192_0621 council for natural scientific professions
192_0622 dikhampaning dikoporasing le baleming ba
192_0624 le ho seholla mmateboho habohloko
192_0631 cite journal title
192_0633 re re re qhwaolla kobo
192_0634 southern african development
192_0636 lerumo ho kgabola kanono moela
192_0645 ba angwang le ho tshwaetswa
192_0646 na o kgathatswa ke lesokolla
192_0649 ho re ho se be
192_0651 a ne a re re
192_0654 ke batlatlapi ba ikotlang sefuba
192_0659 million years ago
192_0661 tlhwekiso ya matlwana ke le
192_0662 naval air station
192_0663 re re ye wits ka
192_0664 ho registrar of animal improvement
192_0667 ba sireleditswe tlhekefetsong le tlontlollong
192_0669 di fumanehe khomputeng ikopanye le
192_0671 east asian countries
192_0672 be o iphasa ka lerapo
192_0674 makuleke kruger national park dinaheng
192_0675 a setso le a sepolotiki
192_0679 kgolong ya ka le tshiung
192_0681 west african states
192_0682 uke ichi ni san ji
192_0688 mokuru o se o sibile
192_0689 ba kgethetsweng ho ba diroki
192_0696 on financial awards pfa dinnete
192_0697 ke ke ha o tswela
192_0707 a le ka mokgorong a
192_0711 arotswe ka mekgahlelo e meraro
192_0712 palestine liberation organization
192_0714 united states capitol
192_0716 re ka be re di
192_0718 poraevete k h r ba
192_0720 services development plan wsdp e
192_0721 mo tadime le ho mo
192_0725 dikoloing ho ya ka ho
192_0726 ho mo qosa le ho
192_0727 thonya bonkgetheng ba loketseng ho
192_0730 ho okamelwa ke ditlelereke phethahatsong
192_0731 ba ne ba ye ba
192_0732 hlwauweng ka ho ya ka
192_0735 paris peace conference
192_0736 mo sehollake a motsholele maqa
192_0737 dipotongwane ho re tshiu di
192_0739 ba ka a ka tshababeatrice
192_0740 dumedise ka ho re dumelang
192_0742 articles containing video
192_0745 ne a se a thotse
192_0746 batshosi ba tsohellang masimong esale
192_0747 o ne a tshepetse ho
192_0750 e qotsitswe le ho lokisetswa
192_0755 lehlokwana le finnweng lefito o
192_0758 ho ruruha ha manonyeletso di
192_0759 european economic area
192_0760 disampole di nehwa ba osts
192_0762 atomic energy agency
192_0764 major league record
192_0765 tshositse ka ho o bolaya
192_0768 e thehilweng ho nyehelo ho
192_0769 ya be e se e
192_0772 o robetse a opelwa ke
192_0773 ka boholonyana o ne a
192_0774 ba se ba sebleletsa ho
192_0775 ba ho tsetelwa moruong le
192_0779 ditshwantshiso o ka qaboha ha
192_0780 ja o mo bolaisa ka
192_0781 mo shakarela a mo kopamolaleng
192_0787 congo free state
192_0790 be kwakwa ya ho hapa
193_0003 bo weso ka ho ja
193_0004 e se bolokehe bahahlaodi bamose
193_0005 e lohothwang temaneng ya i
193_0006 second boer war
193_0014 ha di timanwe e se
193_0022 king james version
193_0033 ya mokato wa moaho oo
193_0034 following table shows
193_0036 boston red sox
193_0037 bokolone le apareteite a bakile
193_0040 ha ho se ho ngangisanwe
193_0044 qojwa ke ho re a
193_0051 coptic orthodox church
193_0054 vene ho ne ho le
193_0065 designated service provider dsp dsp
193_0074 le monyetla wa ho ba
193_0079 ha se ditlhong le manyofonyofoseroki
193_0086 a seke a ikobela boitlamo
193_0087 ka bolwetse bo sa foleng
193_0088 e le e qabolang e
193_0089 tjhehile e ne e le
193_0091 ka thuswang ho ka fihlella
193_0092 dulellane le ho inanatha ha
193_0094 ya akademiki ya learnership ka
193_0095 sa dibasari ka ho ya
193_0102 a jelle kgwebeleng le ho
193_0106 e sebedisitsweng metareng wa dikarata
193_0112 o ne a ka ya
193_0113 unesco world heritage
193_0116 new york jets
193_0118 middle high german
193_0120 bolela haebe o kile wa
193_0121 ba mo furalletseng ha a
193_0122 ke ho ikwetlisa le ho
193_0124 ho re ha o a
193_0129 ho diphaka ho dihlathe difubeng
193_0130 united states national
193_0131 pikoko ka moaparo o lahlilemaharaswanyana
193_0133 le baetapele a re qaleng
193_0134 e o lemosa ka ditleleime
193_0135 e ya nahanelwa leanong la
193_0136 erekaha a ne a sa
193_0137 nebula award winning
193_0138 be re ke ke ra
193_0139 mies van der
193_0141 h o amana le e
193_0143 supang qotso di a bulwa
193_0147 nkimisitsenghobane a ne a re
193_0149 ee o ka re mopheti
193_0150 diofisi a se kea hlopheha
193_0151 lamohlolohadienwa ba ritsetsa katlase ho
193_0153 ho ba thodisa se itsheleng
193_0154 british north america
193_0155 o tennwe ke boitshepi ba
193_0159 yuraniamo le thoriamo boteng ba
193_0161 ka se fetolang ka masenenyana
193_0162 tjhakatsa ka mahahapa ke motsofehadi
193_0164 ka ha di lokodisitswe tokomaneng
193_0168 lohothwang serapeng sa a a
193_0169 sa jwetswe le ka ho
193_0170 a khompeuta a word processing
193_0171 ho ya ka ho kalwa
193_0172 ke ha ho tjhang ho
193_0173 kgohlopo o ne a ka
193_0174 ba meharo le ho ikgohomosa
193_0181 ke e kgahlehang tjhabeng se
193_0182 eo a mo fileng matlaya
193_0183 ka ho sotlwa ka ho
193_0185 pope urban
193_0186 fumanwa a le molato wa
193_0188 ke lehlanya a se ke
193_0189 ya emellwang ka sepolo ho
193_0192 seterekeng sa great lakes re
193_0193 lekala le letle la ho
193_0195 o ka be o sa
193_0197 lefiswang le ha ho le
193_0198 ya manyesemane le phehisano ya
193_0199 ye a re ha ho
193_0200 le phekolo e tliswang ka
193_0201 ho se tsube ke e
193_0204 ba vidiyo le ho tsekiswa
193_0206 phamola ditsuonyana a sa mmotse
193_0207 ho se tsejiswe lebiso la
193_0209 binary search tree
193_0210 le dindaseteri e le ho
193_0211 prime minister tony
193_0212 ka mmadiepetsana watshomong ha a
193_0213 african unity oau
193_0215 o sa ye secunda o
193_0216 ba ha a na diprotheine
193_0217 dicereale reisi ditapole setampa phoofo
193_0218 mo immeng ke ngwanamadi a
193_0221 eo a mo ratileng dilemolemo
193_0222 dac doj pansalb saqa le
193_0233 ya silikha le silikhosis ke
193_0235 ya ka mehla le tlhahiso
193_0237 a le natala tlhware e
193_0239 molefi o ke o mphe
193_0241 ngwahashome ngwahakgolo bapabi le ho
193_0244 jewish theological seminary
193_0249 se ho kgwaphohile ho potlakela
193_0252 ba ditekesi ha ba kenye
193_0254 ho iketsetsa kuno le diprojeke
193_0262 ka ho se je hnatle
193_0268 ha a itlhompholle ka ho
193_0271 ke letlaka haufinyane ho fetafeta
193_0275 carl friedrich gauss
193_0278 botoloking ho leksikhokrafi le mareong
193_0279 o o fetisetsapelebakengsatsatlhahlobisoyammele patholoji thekenolojiyabongaka
193_0280 o molokoloko ha ho diratswana
193_0281 re atisa ho ya mabaleng
193_0283 o motsumi wa meya ya
193_0284 ya phumantsho ya matlo ya
193_0286 ba le pherekano eo ho
193_0287 ho ke ho kgutlwa re
193_0288 motjodi o tono se sephatswa
193_0290 ke mahodi a patile maeba
193_0291 le ne le hanella mmetsong
193_0292 short story writers
193_0293 ba a ka ba o
193_0295 ka tjhepisi ya stimorol e
193_0296 o imme ya nyarosa kgwapo
193_0299 tshwanelehileng di amohelwe ke registration
193_0300 ba ramautla ba re etsisang
193_0301 polasing le menontsha e na
193_0302 memela le meketeng o ratana
193_0303 tlatsa dikgeo ka mahokedi a
193_0304 ka hlahlobong o a thalatsa
193_0305 northern mariana islands
193_0306 mo kopela tshwarelo o se
193_0307 judase ha a ne a
193_0309 saint john river
193_0311 ditsela le ditlwaelo ho ya
193_0312 mmatoko o ne a se
193_0314 traditional chinese medicine
193_0315 fetolwang ka ho ya ka
193_0316 baithaopi le ba sebeletswang ke
193_0317 ha e le a ditsietsi
193_0319 ya ka e a thulama
193_0320 se ke la ntlhobaetsa ke
193_0321 ba ne ba le pelotelele
193_0322 bo be bo le ka
193_0324 be ho sa ba le
193_0325 o ne a mametse ha
193_0326 re iqeke emoholo esere ra
193_0327 palo eo o e kopang
193_0329 ba phetelana ditshomo ho itlosa
193_0330 ya boshodu ho tjhwatlwa ha
193_0331 european economic community
193_0332 ba ba tshwasehe kutlwisisong e
193_0333 e otlolohileng le ha e
193_0334 thaka a be a se
193_0335 mamela ka tshetshefo ka sepheo
193_0336 tshebetso e bolokehileng ya ralewa
193_0337 makwanyane o ne a sa
193_0338 ba lekganyane ho sa le
193_0339 le ha ho le jwalo
193_0340 ke re ke se ke
193_0341 a tshwanetswe ke ho ka
193_0342 ka mokotlaneng wa baki a
193_0343 matshwenyeho ao ba teaneng le
193_0344 re be re tsohe le
193_0345 ke no ebola tapole habedi
193_0346 latetswe le ha e le
193_0347 e re ha mafube a
193_0348 thero le mo kgoqola le
193_0349 ka ya kankere le ho
193_0351 nkgwebetha la re ke le
193_0352 a se a sa bokolle
193_0354 a molaotheo a mosebesetsi wa
193_0356 cognitive behavioral therapy
193_0357 ba buisanang qotsong e ka
193_0359 ho be le ho senolwa
193_0360 se bo bokeletswe le ho
193_0361 eastern orthodox churches
193_0362 ke ho hlakisa ka bobatsi
193_0364 ka ditlha ho kgontsha ho
193_0366 terameng ee o ka re
193_0368 boikara belo ba motlolamolao ho
193_0369 se bolelwang ka ho kgethela
193_0371 asebesetose e se e emisitse
193_0372 le phethelo semelo sa baphetwa
193_0373 eo o se o qalelletse
193_0374 re o tshwenngwa ke ntaramane
193_0375 e metjha ya sekimi ke
193_0377 meralo diqeto le kameho ya
193_0379 bohloko ba seeta bo utluwa
193_0380 ba loketseng ho ka lekolwa
193_0381 a tsamaye le a e
193_0382 o ne a ka bellaellwa
193_0383 e hlokahalang ho batlana le
193_0384 ho ka fefolwa ke difefonyana
193_0385 ya dikanao e na le
193_0386 ba e na le tshwaetso
193_0387 faeba tlelase patsi le seili
193_0388 united states military
193_0389 mo kgelosa le ho mo
193_0390 lehlabathe le kalaka ho ya
193_0391 lekala la ho ithuta la
193_0392 ya moriti le khanopi ya
193_0393 ka ho rialo ha ke
193_0394 ya ka ke e bakilweng
193_0395 o se a nyetswe ke
193_0396 moshaneso ha ke re o
193_0397 o ke ke wa lemoha
193_0398 ho iteanya le majoro le
193_0399 sa ho entela feberu e
193_0400 bontsha ho ba sedi mehopolong
193_0402 new york times
193_0405 be a mo lohetse mano
193_0406 new age movement
193_0407 australian prime minister
193_0410 le ho ya ho e
193_0412 a porafete ho ka ipehwa
193_0414 ba ho kgeswa le ho
193_0418 di bopella kahare ho ditekanyetso
193_0424 hoa ho a ka ba
193_0426 re imatahantse le banka ya
193_0427 a fumanwang ho bomarabe ke
193_0428 se kgopisehe o se hlekefetse
193_0429 ya lekanngwa ha e le
193_0430 ba se ba itshwantsha le
193_0431 ruburiki ho na le ho
193_0432 ba ka tsheptjwang ke ba
193_0433 mabone ya bohlophisi ya ho
193_0436 e fuphula sa phakwe tsuonyana
193_0438 le se ke la ya
193_0440 league championship series
193_0441 ho ajwa ha maruo a
193_0442 ho ke ke ha ba
193_0443 bo fetohakang le f ho
193_0444 letsholo la ho hlasela le
193_0445 ho lefshwa e le tefiso
193_0454 ho jewang hlenhlenyane ho ya
193_0455 oka seso ka makgapha ha
193_0456 re ke ke ra qhelela
193_0457 ka o tshwarisa mmamphele ka
193_0458 a fapaneng le ho ya
193_0460 metse ya ditoropo le kgodiso
193_0461 ya sekgutlo e ne e
193_0462 ka ha o le mokapotene
193_0463 le baahisane ba phallela ha
193_0464 sekgukguni ha a le ka
193_0465 le fifi sa phoofolo e
193_0466 o ie mahlokong o ie
193_0467 ditaemane ba ne ba di
193_0469 oo lentswe le ka bang
193_0470 ke pac e tshwanelehileng di
193_0472 ya ya matamo a ho
193_0474 be ha e ne e
193_0475 oo o o kgethileng ho
193_0476 ba menngweng ka boithaopo ho
193_0478 wa sejwalejwale o tenyetsehang le
193_0479 ba hlanya ho ne ho
193_0480 ha ke hopole le ka
193_0482 ho re ha e ye
193_0483 infant mortality rate
193_0487 ha e ka ba kaenyana
193_0488 itebala ho re ba ya
193_0489 patanta eo paloyohle ya dipatanta
193_0490 je ba ke ke ba
193_0491 kalana ya moriti le khanopi
193_0492 nnyane a swaba ha a
193_0494 seporo le dikou le ho
193_0495 sheshe le ha e le
193_0496 bitoha se ka mesha o
193_0498 meraro ya ho hweba ka
193_0503 trade unions ho ba fa
193_0505 dintja di se di thotse
193_0506 le hoketsweng tshepeng ya heke
193_0507 e ikemelang e le notshi
193_0508 music awards winners
193_0509 ha ho a ka ha
193_0510 bo naka di maripa ho
193_0511 ya jenerike e na le
193_0513 e fumanweng e le dimpho
193_0514 be pelonolo a be le
193_0515 ke ka maswabi ha ke
193_0516 tabakgolo e ne e le
193_0517 moreki a ka iteanyang le
193_0518 e ne e le mokolonele
193_0519 ho sisinyeha ho hosesane ha
193_0520 e tshehadi e sa tswaleng
193_0521 keletso e ahang e buang
193_0522 ho fokotsa le ho fedisa
193_0525 se ke lemoimana ha ke
193_0527 indastering ya polatinamo ha ho
193_0528 ka kganyapa ho ne ho
193_0529 ho fumana setifikeiti sa botho
193_0530 eo ba e emetseng ke
193_0532 e se e hlwahlwa hakaalo
193_0533 mesebetsing e tshwauwang ke baithutimmoho
193_0538 a ne a sa tsube
193_0539 bo bokellwe le ho sire
193_0542 le hlolwa ke ho itjarela
193_0544 tsekisang be e se e
193_0547 e fosahetseng ya dihlooho le
193_0549 o tseba le ho utlwisisa
193_0550 ka ho mo silela lesheleshele
193_0551 ho ba morupellwa wa hlophollo
193_0552 a theolwa ho ya ka
193_0553 holy roman emperor
193_0554 ba ho thabisa baadimi ba
193_0557 tlhekefetso ao ho ya ka
193_0559 ne di qetetse ho tshwauwa
193_0560 morwetsana eo o a se
193_0561 e tlamang ha e ba
193_0562 ananelwa ke seta baabi ba
193_0563 ha e ba ha ho
193_0564 missing living people
193_0565 didietsa le lehlokwa bo ha
193_0566 dipenshene a ho se akaretse
193_0567 o ne a ke ke
193_0568 re kg kg kgrr kgph
193_0569 dikgohlo di a phatsima ke
193_0570 lebiswe ho mohiriwa mokodi ka
193_0571 ho na le kgonahalo ya
193_0572 musical groups established
193_0578 le ho thuhiwa ha ho
193_0579 american psychiatric association
193_0583 ke le kgethong ya beryl
193_0586 f le g ha e
193_0591 ka elektroniki ceftu e entsetswelopele
193_0593 british virgin islands
193_0594 ya bommakarabelo ya arabelwa ke
193_0597 free open source
193_0600 ba atise ho ba le
193_0601 le leino la sefofafane se
193_0602 bus rapid transit
193_0604 national automated archival information retrieval
193_0605 a d m c fourie
193_0613 ke moholo ha ke le
193_0614 se monwana ha le kgutle
193_0615 ke ke a labella ka
193_0622 oxford english dictionary
193_0632 phihlelo ya ho ba le
193_0634 president ronald reagan
193_0635 citric acid cycle
193_0636 o ba kope ho o
193_0643 floppy disk drive
193_0645 a ho ikwetlisa yoga le
193_0646 blood glucose levels
193_0649 ya sekolo ho tliswa ke
193_0650 ho boramesebetsi setlankana sa depositi
193_0654 late nineteenth century
193_0656 ya loetse e le ho
193_0659 europe music
193_0660 ka boitshepo bo kgotsofatsang ha
193_0662 o ne a sa sitwe
193_0669 ba tshubuhlellano ya baditjhaba ka
193_0672 eo a mo tlapuretse lethekeng
194_0001 ba le pate ha ba
194_0002 ba are lemela kapaba re
194_0003 le holane lebelo re sa
194_0004 ya ka ya ho re
194_0005 ne e le ka phirimana
194_0006 la porovense la kgauteng ke
194_0007 omosweu o se o thuntse
194_0008 ne e le makaroff nthwe
194_0009 di sa fahlwa a kokosile
194_0010 sekgahla se kahodimo ho sa
194_0012 na le faebara e ka
194_0013 re a be re sa
194_0015 kgarafu ya sekopo ho raohile
194_0016 ba dikalaneng ba mo tsebileng
194_0017 ya leshoma o nkomela ka
194_0018 se seka sekwa le ho
194_0019 bo bottle le ho tataisetsa
194_0020 tsebiso ofising ya moporemiri di
194_0021 ha le qhibidiha dithabeng ha
194_0022 qalong ya mosebtsi wa ho
194_0024 bat la e se na
194_0025 a barui ka ha e
194_0026 a mo nyaretse le fensetereng
194_0028 se ikamahantseng le makgabane a
194_0029 e le dillo le ditsikitlano
194_0034 sesupo sa ho inehela ha
194_0036 e re kg kg kgrr
194_0040 kgetholle ka morabe le ho
194_0044 otlolohileng le ha e na
194_0046 ke kutlwi siso ya ditlhokeho
194_0048 a tsepamisitswe ho phelelaneng ha
194_0049 ho ba sedi mehopolong e
194_0050 a tshwaye a ipapisitse ka
194_0051 ba tsepame ba otlolohile ba
194_0053 ha o ne a se
194_0054 piet o letlaila ha o
194_0056 sa hakala sa mo qhautsa
194_0058 o kenyeleditseng mawa a hlophisitsweng
194_0059 borotho bo bosweu reisi e
194_0060 mosebeletsi wa laeborari ya heno
194_0061 united states code
194_0062 tampa bay buccaneers
194_0063 e ipatileng tb e tsohileng
194_0064 se lokolohileng bofumeng le bohloking
194_0066 e keke ya e ba
194_0068 di kenyelletswe le ho hlabollwa
194_0070 european union member
194_0073 le tjhesa le le ka
194_0076 ho re a ke ke
194_0078 ngotse ba ikopela ho ya
194_0080 ba ikgathollangka ho ithabisa ka
194_0083 mmidimidi oo ho ne ho
194_0085 se sa ka sa itshwara
194_0086 ka bophara le ho bopa
194_0088 oxford university press
194_0093 ya ho falwa le ho
194_0094 ngwanelajakane a ba a timellwa
194_0095 a ka a mpotsa ke
194_0096 ka kgang ha ke re
194_0100 wa tlhahiso ya lenanetsamaiso la
194_0102 pooneng ha o se o
194_0103 se sa thuswe ke moemedi
194_0105 mafubedu a re tlere setebele
194_0107 ya botegniki patlisisong ya dikotsi
194_0108 resources ke ha mekgolo leaves
194_0109 tshekatsheko e hlahi sitswe ka
194_0110 islamic conference members
194_0112 ommeng le matlalo le di
194_0114 ba shwelletse mokuleng ka boomo
194_0117 di billiard ho haha le
194_0122 a re ake uke ichi
194_0124 di na le sethethefatsi se
194_0126 ka usa britain le dinaha
194_0127 ka ba ke re ke
194_0129 monokotshwai ha o butswe ka
194_0132 e ne e se ba
194_0134 di kwetswe le mafelong a
194_0135 ditemeng e jere molaetsa o
194_0136 e nkuwa e le thekenoloji
194_0137 kgwebisano le ho tsetela le
194_0139 a laolwe ke gcis ba
194_0142 frank lloyd wright
194_0145 ho kopana ka ho intsha
194_0146 mekutung ya kontinente ya ho
194_0148 tafole o se ke wa
194_0152 a tshwaetsang a ka fumanwang
194_0154 di itshetlehe kamanong ya dibui
194_0155 ha e na ho tshetswa
194_0157 eneng e le ho qobisa
194_0159 ka inahanela ho re ha
194_0160 letangwana la ho sesetsa ba
194_0161 o kgutla a se a
194_0162 ne ba se ba mo
194_0165 new orleans saints
194_0168 hlokehe ha ho se ho
194_0169 algebraic number theory
194_0171 ba sa e thabela dieketseng
194_0174 acquired immune deficiency syndrome eo
194_0178 ke a tiisa ke a
194_0179 a sa utlwusise ho re
194_0180 le mosebetsi wa profeshenale wa
194_0187 a theohe koloing eo ya
194_0190 la haeka nakoeo e le
194_0193 mabophe ba ne ba emeletse
194_0194 ho khanseling ya borutehi le
194_0195 ya ikokobeditseng ya ithobileng o
194_0196 new england patriots
194_0197 high middle ages
194_0199 ho o nahanisisa ho o
194_0200 kgomo e kentse leoto ka
194_0205 ke be ya phaellwa ho
194_0208 re soqete ho foroma mmaditaba
194_0211 baheso le baeti ba hlomphehang
194_0212 ho e kama wiki e
194_0217 magnetic resonance imaging
194_0219 bo ne bo hlomola ho
194_0223 o motjodi o tono se
194_0225 ba bane ba hlahelletseng ka
194_0229 ka ho mo fa bolekana
194_0231 ha se eo a mo
194_0232 ho finyellwe le ho qhalanngwa
194_0233 le lekgutlajwale o se a
194_0235 e se e le shwalane
194_0236 infectious disease deaths
194_0238 ke sefelapelwana ke tenwa ke
194_0241 le beta pooho ha o
194_0245 aitlhothatlhotha ditlhotse a tshematshema ka
194_0250 khanselara ya boemedi ba tekano
194_0252 labo o ne a ke
194_0257 a ke a o jelle
194_0260 le ne le sa nkemele
194_0264 sekgalekgale boinyatso le ho jariswa
194_0265 wa ho ba joki o
194_0266 ha ho na ntshunyekgare e
194_0268 feedlot fektri ya ho prosesa
194_0271 di e hafaka e ne
194_0272 ke lakatsang ho iphelela le
194_0274 mehlolo ha ho thwe mehlolo
194_0275 evangelical lutheran church
194_0277 ho ka akanya ho re
194_0279 ho be le ngangisano le
194_0280 ne a se abile a
194_0281 madiba ho psha a matala
194_0283 ho tshwanelehile le ha ho
194_0285 le ho kopakopana ka bobona
194_0286 ie ho di qhaqholla ke
194_0289 ha le thakgiswe ke ho
194_0290 ne a kwalletswe bosiung bo
194_0291 a mohiruwa a a kokobela
194_0297 kwatsi ya bosollahlapi kgodumodumo mofetshe
194_0298 computational complexity theory
194_0299 montsheng o se a nyetswe
194_0301 be le ya mo sitisang
194_0302 personal medical savings account pmsa
194_0303 regular season games
194_0305 president harry
194_0306 statistical system samrass o ngolang
194_0308 difuperweng tlhophiso ya mohopolo le
194_0309 ho phethahatsa ho ya ka
194_0311 le be le se le
194_0312 a ke ke a phonyoha
194_0313 se kutile le ha ho
194_0314 founa sa sars se tshwanetsing
194_0315 ya bapalami a sa ba
194_0316 arabele se builweng ke sebui
194_0317 eo ha e sa le
194_0318 bococaine ecstasy lsd le ka
194_0320 ha mo osuwa a sa
194_0321 prime minister john
194_0326 ba fetile lebollong ba ne
194_0329 bolotsa le ya ho hlongwa
194_0333 phamola ka tlelapa ke ne
194_0334 wa ho buswa le ho
194_0335 e ho utswa leshano ho
194_0336 letawa a ka ba le
194_0339 ka ha e ka ha
194_0340 ho thibelwa na o a
194_0341 italian roman catholics
194_0342 average annual precipitation
194_0343 o mpolaile monnaka o sa
194_0344 bo amohelehileng bo mahareng ba
194_0346 mosebetsing oo a o neilweng
194_0347 sa nalane le jokorafi a
194_0349 ke mo lebelletseng ha o
194_0352 bo beilwe pepeneneng ke ba
194_0353 haele fatsheng ka senwamaphodi se
194_0355 ke ingodisa lenaneong la afa
194_0356 ne ba sa lokoloha ho
194_0359 ba ab b le c
194_0360 dibetsa ho ya ho se
194_0361 e sitisitswe ke ho se
194_0364 arolelanweng ha disebediswa le ho
194_0365 dutch east indies
194_0366 a bonahaletsa o ke ke
194_0367 di romelwe ka poso e
194_0368 ho ahlolwa le ho tlolwa
194_0370 capital di tiisetswe ke notary
194_0371 gdp growth rate
194_0372 ba bofumanehi le ho se
194_0373 llifi ya ho se itekanele
194_0378 di ka tsamaiswa ka boqhetseke
194_0379 tema boholo e na le
194_0380 a ba a mo suna
194_0381 ya mametseng a be le
194_0384 maphodi o ne a phodile
194_0385 freedom charter ha e re
194_0388 a di apara bosiu le
194_0389 ya hoeletsang he e i
194_0390 re o ka nketsang ha
194_0391 a sekametseng ho tshabiseng ka
194_0392 western new york
194_0394 ke re ke mo hloile
194_0395 average annual temperature
194_0396 partially ordered set
194_0397 kgurumbala ke ofisiri e ka
194_0398 a tshepana le abelana diphiri
194_0400 world chess championship
194_0401 ha a ka kolobetswa ba
194_0403 le qhalana ha a busetswa
194_0405 ka ya poropaganda le dipapatso
194_0407 ho bayoloji le khemistri ho
194_0409 e le ha a iphetetsa
194_0411 la ditshenyehelo le hlahisang ditlhoko
194_0414 lekena o ne a sa
194_0416 ya belaellwang ho ba le
194_0417 ya bohalev o ne a
194_0419 mokgosi marulelong e be le
194_0420 ba bosetjhabeng ha a ka
194_0421 ha e holelwe ka ho
194_0422 e meputswa ho rwetseng diborele
194_0423 johannesburg le durban le polokwane
194_0424 board of trustees bot le
194_0425 ke se ka kelellong ya
194_0428 ho hanwa ka boikgetho ho
194_0432 a re two two umthetho
194_0433 university college london
194_0434 ba ka tsosolosang diboto ho
194_0436 german high command
194_0437 e bodutu ke tsullung ya
194_0438 human genome project
194_0439 sefako sa dikulo difensetereng le
194_0440 tswelopele e a fokola maano
194_0443 o tshehisa ho phoqa hahaha
194_0446 received mixed reviews
194_0447 ha ke re ke hlalositse
194_0450 boladu o ke o tlohele
194_0452 le ho ba tlokotsing ya
194_0454 ba seretswe ha mefenetha a
194_0455 bahae o tswetswe a le
194_0457 e meholo ha ba sa
194_0458 page history link
194_0460 e ne e le hoseng
194_0461 ya sehahi sa benkeleng la
194_0462 borwa ba ke ke ba
194_0466 tlhekefetso ya basadi le bana
194_0467 se ke ha tsujwa ho
194_0470 sa pampitshana eo e be
194_0474 di nonne di taboha a
194_0475 early modern period
194_0476 roman catholic saints
194_0477 ho be sa le a
194_0480 e nolofetse ho ba bobebe
194_0481 baitokolli ka borona twantshong ya
194_0484 cumulative distribution function
194_0485 total land area
194_0487 anglo le bhp billiton di
194_0488 ya ho tshwarwa ka ho
194_0497 difounu le ho tlanya typing
194_0498 ka mora hora ya bosupa
194_0499 thebe ya leshoma o nkomela
194_0500 wa diteboho ho ba ka
194_0501 ho ya phapusing ya tshohanyetso
194_0502 ya holelang moetlong ha a
194_0503 tokomaneng ya setatemente sa kharikhulamo
194_0504 globe film winners
194_0505 e ka bokellwang ka weposaete
194_0507 se ke itse setsweng ke
194_0509 a di utlwileng ka ho
194_0510 ho ba le selefounu ho
194_0512 par moodley o thakgotse ditataiso
194_0513 ke be ke o buretsa
194_0514 ho hokelwa e le ho
194_0516 official seed testing station ba
194_0517 lefapha la bonono le setso
194_0518 bolaodi ba phallo ya dinyewe
194_0520 le radilwe ka ho kgetheha
194_0521 sekgoqetsane se ne se bakilwe
194_0522 ne ke sa lwane mmannyeo
194_0523 e rejistarilweng le e lefeletsweng
194_0524 ya ka ho kalwa ha
194_0525 a le kalafong ya lefuba
194_0526 wa tshwaro ya basebetsi hr
194_0529 french national assembly
194_0531 wa sefonthwane ya manetse hekeng
194_0532 dikelello le ha e le
194_0533 ralehlatsa o ne a robile
194_0535 bo ka fifala ke ho
194_0536 o tshabana le ho tshwengwa
194_0537 maboteng ho betlwa ha mabala
194_0538 bahlahlobuwa ba kgothaletswa ho ba
194_0540 ya ka le pontsho re
194_0541 science fiction television
194_0542 security council resolution
194_0543 e ne e le nthoe
194_0545 e omiswang e tshelwang ka
194_0546 air national guard
194_0547 american football team
194_0548 ke ke a hanelwa ho
194_0549 ka setsebi sa saense ya
194_0550 ka meqebelo le disontaha ho
194_0553 ya ejamethinya o ne a
194_0554 ho se ke ha shejwa
194_0555 o se o emisitse rakgadia
194_0556 ha re bueng ka a
194_0557 pooho e ne e le
194_0559 ne ho na le basadi
194_0561 sa tsuonyana ha se hlomolephakwe
194_0562 dinku ie dipere di ne
194_0563 e iswe ho ba baholo
194_0564 re o se a ne
194_0566 di ne di ye di
194_0567 bo se fete leqephe ha
194_0568 ke a itebohela ha ke
194_0570 le ba ingodisitseng baeletsi ba
194_0571 afidaviti a ka ya ho
194_0572 e se e le ho
194_0574 ba babedi bao re ka
194_0577 di thuse phihlellong ya diphetho
194_0578 le se le motshela ka
194_0579 hampe ngwanana eo wa moloi
194_0582 wa lehae o na le
194_0583 le nkgolwe ha ke re
194_0586 a re ke moshwa bo
194_0587 le phekolo ya moprofeshenale wa
194_0588 se na hitara ya kgase
194_0589 mo pharehela moratha le diretlo
194_0591 special administrative region
194_0594 le sebo peho ka b
194_0595 marena le mafumahadi le mmini
194_0596 mmmadiepollo o ne a sa
194_0598 sesosa se seholo sa ho
194_0600 la re ke le nyaye
195_0003 ha le tjhaba ke phutha
195_0005 ho mawatle o o hloloheletswe
195_0007 leka ho o hlaba malotsana
195_0012 a keke a boloka ho
195_0014 le ke le atlehe v
195_0016 mope leto di ngata ma
195_0017 ba eta ha palaemente e
195_0023 dikontraka ditiiso ho bakadimi ba
195_0025 ya tselakgopo sekere ke sa
195_0026 e tshwarellang e susumetsang le
195_0027 e se e hlwedisitse ka
195_0028 be o se o e
195_0029 universal postal union
195_0030 white blood cells
195_0031 kahisano le a semoya a
195_0033 e ke ke ya transferwa
195_0037 le ka rarollang tshubuhlellano e
195_0041 maqaqailana melamu ya ho ikokotlela
195_0043 ha tehpa e ka rekiswang
195_0046 ho ja ha a ne
195_0047 random access memory
195_0048 re balella dikhamphani dikhophoreishene bommasepala
195_0049 leonardo da vinci
195_0055 nfl championship game
195_0058 a re photse ha a
195_0063 ft m long
195_0067 mean value theorem
195_0070 a hloriswa kehlooho e opang
195_0072 di sa le yo ho
195_0077 ka sasol anglo le bhp
195_0083 imperial japanese navy
195_0089 e tlohang le sepolo ho
195_0091 united states naval
195_0100 color field painting
195_0105 ya tjhonneng ha a ka
195_0115 second largest city
195_0118 takilwe mmapeng wa gis ka
195_0119 na e be ha o
195_0122 le dilomo meru e kopaneng
195_0123 australian capital territory
195_0125 a ka re o sa
195_0126 ho be le phumantso e
195_0127 jwang ha ho se ho
195_0131 ha a ka a otlana
195_0134 a le thelefounung ho di
195_0141 e se e phethahaditswe a
195_0142 mmuso wa provense ya freistata
195_0143 drug administration fda
195_0144 o tlabidika a thwene a
195_0145 mophedisuwa e tlatsitsweng foromong ya
195_0149 na le phehello ya ho
195_0152 mekutu ya ho potlakisa kgokahanyo
195_0158 dilamunu dilemone diphaenapole le ditamati
195_0166 o ka fa sheri wa
195_0168 elektroniki ha e laollotswe setsheng
195_0171 states army soldiers
195_0173 keletswalo la horemohlomong o ka
195_0174 le ho nehalana a hlokometse
195_0175 mphe semeremere le tshea ke
195_0178 e le lekunutu ho inkunela
195_0180 e phethahetseng ya tlotlontswe le
195_0185 wa tlelapo ya lantjhe b
195_0188 a sa phefomolohe le ho
195_0189 e kenyeleditse tekolo ya ditlhoko
195_0190 dulellana le ho bitsollakaka bakgotsi
195_0192 ba thapameng eo ha hanghang
195_0195 ho ka maiteko a ho
195_0199 na ke meaoho le ditsha
195_0200 a ne a ipuella ka
195_0202 ya o foseditseng ha ho
195_0206 le c dipehelo le dipallo
195_0207 employee assistance programme eap ka
195_0210 major league history
195_0211 kaale e o ngongorehisang ka
195_0212 reactive oxygen species
195_0214 tsamayelana lekotsi e kieng ya
195_0217 great lakes region
195_0218 ba hodisitswe ho se na
195_0222 ya ditoropo ho kopanyeletsa le
195_0227 le tjhabile le monatjana ho
195_0233 iowa state university
195_0235 sireletseha ha ho ka etseha
195_0236 ba ramotse tikolohong ya heso
195_0239 fact date july
195_0243 wa mahindu ho hatellwa difeleng
195_0244 autlwe ho bolediswa bokweta bo
195_0247 be le e ngatanyana ba
195_0249 eteleditsweng pelepele di rerile ho
195_0252 di apostille certificate ke ditifikeiti
195_0255 mathang ka tlase ho lefatshe
195_0261 free trade association
195_0264 chinese communist party
195_0269 diphofu ha ho sa fihlelwa
195_0270 episcopal church usa
195_0271 v v v ha a
195_0273 di close corporation di partnership
195_0274 ne ke re ho ya
195_0276 kojwana di mahetleng le ba
195_0277 ho baeletsi ba botegniki ho
195_0280 a fihlang bokgutlong ngongoreho ya
195_0282 eo ya lehokedi sehella lehokedi
195_0285 ha ke ya ke shebile
195_0286 pope pius
195_0287 leqwetha a sa re o
195_0288 o na le khopi ya
195_0293 bahlabani ba ne ba ka
195_0295 national historic landmark
195_0296 e ye e re ha
195_0300 be re be re aha
195_0301 akhaonto eo o ka bolokang
195_0302 ka ba toma le ho
195_0304 ya terre firme ka ho
195_0305 venice film festival
195_0308 a nwe ho faswa e
195_0314 ya kgoholeho ya monu ii
195_0316 ho ka hlahlojwang le ho
195_0318 ho re na ke a
195_0320 wa porovense wa kgauteng ka
195_0321 ke carlos alberto parreira le
195_0324 o le malala a laotswe
195_0325 ha ho sa na moketjana
195_0326 le ho ruruha ha manonyeletso
195_0328 ohio state university
195_0329 e rabella ka sabole ho
195_0330 bo menomasweu ba o bolayang
195_0332 ka kotloloho le ho kgutliswa
195_0334 lekile ka makgetlokgetlo ho o
195_0336 matlong a rdp ho a
195_0337 wa ho fepa le ho
195_0339 o mula nthwane ya se
195_0340 ya ba e se e
195_0344 ba a kwetse nqi ba
195_0345 metsing he motswalle ha ke
195_0347 o loileng o itoile ka
195_0348 southeast asian nations
195_0349 bosofe bo ka ba le
195_0350 a selasela theepe ya dimo
195_0356 ha o letsetsa healthline o
195_0359 actor golden globe
195_0360 largest trading partner
195_0362 be a sa phethise ditshepiso
195_0364 average family size
195_0365 hlahlobisisa bokantle ba makasine o
195_0371 ha di kenyeletse setroi ditlhoka
195_0374 fraenkel set theory
195_0376 le sele le bohweng ba
195_0380 eo mokgwenyana ba ne ba
195_0383 kgwehlang e ne e le
195_0386 ha ho se ho tsepamisitswe
195_0389 statistik provisionally valued
195_0391 a re leotwana lee ke
195_0393 e sa le ka madungwadungwa
195_0394 ha a ne a fihla
195_0398 edgar allan poe
195_0402 a supasupa e ka o
195_0404 tshetso ya se tegeniki ho
195_0405 milky way galaxy
195_0411 v ho rafoha le ho
195_0412 e ne e thehwe ho
195_0418 tela maseru ke ho tela
195_0419 mehau ke re o ntsubise
195_0420 ka sefubeng ruri e ne
195_0421 ka ha di fuperwe ke
195_0426 kwetswe le mafelong a beke
195_0427 ho otloloha lenanetataisong la ho
195_0431 mokudi ya kulelang lefu ka
195_0432 democratic national convention
195_0435 ho o isa ho makgistrata
195_0436 holofetse ba qhwadile hampempe e
195_0439 enaha se sebapallwa ke moraparapa
195_0444 re potlololo ha a bolellwa
195_0445 se ke wa kgutlisa bukana
195_0447 le mafenethe o ne a
195_0449 fact date april
195_0450 makatsa ka ha ba ne
195_0453 ya ho re o se
195_0454 early twentieth century
195_0458 mohwehadi a bobotheha ke ho
195_0459 kgorong eo ho kenwang ho
195_0461 general public license
195_0462 a hlahela meduduetsane bokgeleke ba
195_0464 major league soccer
195_0466 tswellisa batsetedi le ho hlabolla
195_0470 ka foreisetata le lesotho e
195_0472 e ne e le diya
195_0473 central intelligence agency
195_0474 re tlole ka sekotjaneng se
195_0475 le bo ka kgonwang ho
195_0477 ewp e be ba sebedisana
195_0478 spanish civil war
195_0482 thuthuhang le e behilweng ka
195_0483 le e raraheneng ka ho
195_0486 ke bona ho le molemo
195_0488 eo o e lefang ho
195_0489 ya ka tshebedisa no ya
195_0490 le ho loela ha demokerasi
195_0491 b sc b sc honours
195_0493 a kgohletse a le dibebe
195_0496 leqeme ba ke ba ba
195_0497 ho nyanyatsa dijalo ka sefofane
195_0501 e a nyahamisa e a
195_0502 na le voutu e le
195_0503 ha ba sa new ba
195_0505 kgaello e totobe tseng sebopehong
195_0506 meso ya ditshehlo le ditsikitlano
195_0507 bo ahe tulong e le
195_0509 ha a ka a ba
195_0510 fact date february
195_0511 seqhenqha sa moshemane a le
195_0513 lekanang mahlakoreng a mabedi a
195_0514 ya ho rutela ha a
195_0515 educational institutions established
195_0516 foreign direct investment
195_0517 o fellwe ke bosotho nthwese
195_0518 ne o theosa eo ya
195_0519 o ne o kgethwe ho
195_0521 ha di sa le yo
195_0525 o se o fodile a
195_0540 ho ne ho se na
195_0543 e ntle ha holo ya
195_0545 a koula ke eo a
195_0554 ba ke ke ba ho
195_0558 be e le ho mo
195_0593 ha e ka ha ho
195_0601 jeseng ditheohelang e le ka
195_0605 hwa be ho se ho
195_0623 a nya matsete a ba
195_0674 ka nepo o se o
195_0685 mrm e ne e le
195_0687 fact date march
195_0694 ee na o ka re
195_0701 e metle eo a e
195_0718 military coup
195_0731 la ho ya beleha le
195_0738 kelly o ne o na
195_0740 re a phahame a ke
195_0741 a re o a mo
195_0762 ha e le ho kgutlela
195_0774 le tjhesa le le ka
195_0775 soweto e ne e na
195_0777 ho re a ke ke
195_0796 a ka a mpotsa ke
195_0797 ka kgang ha ke re
195_0800 se o mo ja ka
195_0811 islamic conference members
195_0816 na o ne o ka
195_0819 ke ne ke o laya
195_0820 e ka nnang ya ba
195_0823 a re ake uke ichi
195_0824 se e le ba ahetseng
195_0825 di na le sethethefatsi se
195_0826 a nthuta ho fina setebele
195_0827 ka usa britain le dinaha
195_0828 ka ba ke re ke
195_0829 ne e le ho ya
195_0830 monokotshwai ha o butswe ka
195_0831 e ne e re ke
195_0833 e ne e se ba
195_0842 a se a sa di
195_0843 frank lloyd wright
195_0844 ya ho rafa ya ho
195_0852 be le se le ya
195_0870 algebraic number theory
195_0873 e be ba ya le
195_0874 o lokile ba crime stop
195_0878 a ferekane a sa itsebe
195_0879 ke a tiisa ke a
195_0883 ho na le ho ya
195_0886 le ha e le e
195_0887 a re habore a sa
195_0889 ha ba ne ba e
195_0890 e be o a e
195_0899 he ke se ke le
195_0901 kgomo e kentse leoto ka
195_0927 ke ke a ba le
195_0928 ne a sa nepa ke
195_0933 ha a ne a ya
195_0937 ke seikokotlelosethusangmotho ha a na
195_0938 o ne a le ka
195_0939 a ja ha ke kgore
195_0942 ka na ba ha a
195_0944 se ka tshwarwang ka menwana
195_0946 ya ho sutha mokgweng wa
195_0947 ho kwadiaka ho hlakana a
195_0948 ha ba e na le
195_0949 koduwa ya ho kgaoletswa a
195_0950 ba hohlola le ho ba
195_0951 vicky strydom o tshepisitse ho
195_0952 ha le se le beuwe
195_0953 a re o rekisetsa bathofeela
195_0955 ba mo rahakaka molatoane o
195_0957 wa selalomehadi sa sekwenyamatjhaba ha
195_0959 mmonang ha a se a
195_0960 la ho ya amerika le
195_0963 two umthetho wa se tjele
195_0964 sydney opera house
195_0965 ke ne ke sa lwane
195_0966 le dineo na o ne
195_0967 kamoo o nwang dinotahi le
195_0968 e hlahiswa ka bofokodi bo
195_0969 ke ka lona e se
195_0970 ha a ka ya lebollong
195_0975 o ne a atisa ho
195_0976 jwaleka ha ho hlalosetswe mohato
195_0980 o a ntlhola ngwanaka ha
195_0984 a ke ke a re
195_0986 ha e ke e binwa
195_0989 microwave background radiation
195_0990 a mo laole le ho
195_0991 o sa tshwanelang ho e
195_0992 independent media diversity trust ha
195_0993 e sebetswa letsatsing leo e
195_0994 ntjha le diphetolo ngodisong e
195_0995 tlisitsweng ke bokoloniale aparteite le
195_0996 ho ya dikopanong le disimphosiamong
195_0997 early middle ages
195_0998 o se a mo qalletse
195_0999 o ka itahlelang lemeneng la
195_1000 d ho ikopanya le difedereishene
195_1001 ne ba itjella bolokwe ba
195_1016 states presidential candidates
195_1019 o e fetolele ho lekgathe
195_1020 tshekatsheko ya hae e paka
195_1021 ba se ke ba di
195_1022 lofe a ka hlolehang ho
195_1023 paleng ee o ka re
195_1024 sehlahla ke phetho ke tu
195_1025 hard disk drives
195_1026 le leamanyi o be o
195_1027 ke ho kgahlisa baditjhaba ka
195_1028 e le wa semanyamanyane o
195_1029 ho se ho le tjena
195_1031 java virtual machine
195_1034 ba le utswe ba le
195_1036 indian national congress
195_1039 e tswalang ho foforeha ha
195_1040 le lekgetho le o phumaneho
195_1042 lebellwa ka ha e ne
196_0001 sa etseng phaello di npo
196_0002 ya poone sorghum le pasta
196_0003 ho ne ho e na
196_0004 borokgo bo tshelelang kamotseng ya
196_0006 se o e lala ka
196_0007 e be ho se ho
196_0008 ka sheshe le ha e
196_0009 ka ho re a ye
196_0010 ba le mokatong o ka
196_0011 a mabitsoao o be o
196_0012 ho ba se be le
196_0014 la ho neelana la ho
196_0017 phepetso eo ba ikemisetseng ho
196_0018 a ne a sa le
196_0019 ho mahlatsipa a bo tlokotsebe
196_0020 ha ke re ke ntsha
196_0021 batswadi ba lenyalong le maqheku
196_0022 sa tsejweng ka kgalaseng eo
196_0023 ho la riphaboliki ka ho
196_0024 ho ya ka bomeo bo
196_0025 c ho se nwe teye
196_0026 ludwig van beethoven
196_0027 ho qholotsanwa ditjhaba di telela
196_0028 ho lekodisisa ho ya ka
196_0029 di a bata ha ke
196_0030 ya seterata sa motsana oo
196_0031 ke ho re karate ha
196_0032 thoholetswa eno ha ke hane
196_0033 ne o batlwa ke mookamedi
196_0034 ke tlakana le a raha
196_0035 united states
196_0036 ntsubisa seneifi ke a o
196_0037 se kgetholle ka morabe le
196_0038 o se ke wamakala e
196_0039 eo o e kopang ho
196_0040 south sandwich islands
196_0041 ha e le mo ho
196_0042 phetohonyana e makamakatsang eo a
196_0043 ha a fetohe o a
196_0044 difate o ka nqane ho
196_0045 peparemente le tjhokolete di ka
196_0046 ke mosbetsi o lenama o
196_0047 eo a akgela pitlahadi ya
196_0048 ho mongodisi wa di gmo
196_0049 le mafenetha o ne a
196_0050 a be le kutlwelo ditlhokong
196_0052 ha le ne le nyalana
196_0053 ne a se a eleditswe
196_0054 lepetjo la dihlomo la la
196_0055 ha dikolo di se di
196_0056 cite journal author
196_0060 e qaphaletswa ke bosiyo ba
196_0063 eo ngcobo nkabinde le skweyiya
196_0064 katiso di so ka di
196_0065 united kingdom parliament
196_0069 molecular orbital theory
196_0070 e f le g ha
196_0071 letjholotjholo mmamaqheka e le ka
196_0072 tsitsang le ha e le
196_0073 hiriswangmotsaneng o ka thokonyana ho
196_0074 a hele a itlamele a
196_0075 ho beleswa ho phaellang ho
196_0076 a keqa a sarelwa a
196_0077 atehileng le tsepameng nlheng ya
196_0080 e ne e le tjaka
196_0086 broad based black economic empowerment
196_0088 batantshi ba e hatakela ka
196_0089 ya ka o besang o
196_0092 e ka ba sesupo sa
196_0095 bolokwa khomputareng bakeng sa direkoto
196_0097 re ho se be le
196_0098 sa le tshwantshe le la
196_0099 dumeletsweng medicine price list mpl
196_0101 le ho kwallwa ha ba
196_0103 mofuta wa potso e telele
196_0104 ho abelana tlotlo ha re
196_0105 ho bata horeo yentle le
196_0106 a di pata matlwaneng a
196_0107 o ne a sa utlwusise
196_0109 wa poulelo le wa ho
196_0111 jwetswa o bonwa ka dikgapha
196_0113 science fiction writer
196_0114 ne ba sa ba ratesise
196_0115 tshwanetseng ka ho ya ka
196_0117 o qollehang o ka thehwa
196_0118 adv johnny de lange ke
196_0119 ye ba itokisetse ho ya
196_0120 a ikemetse a ikgannale ho
196_0121 a theohang fora thae le
196_0122 nuclear chain reaction
196_0123 ya kgumamela ka ha ba
196_0124 ka peipi ya kenyomoya e
196_0125 a ditlhabollo tshokollo ha ba
196_0126 new democratic party
196_0127 o qela ka qenehelo le
196_0128 bonkeka ba di tlwaela kapele
196_0129 ba ne ba re o
196_0131 ho akgellwa ie lebollo ka
196_0132 e hlahang sehlomathisong sa a
196_0133 ho be ho petsohe le
196_0134 ha ke bo labalabele le
196_0135 ngwanaka ka ho ja masooko
196_0136 tsitlallela ho tlisa katleho ya
196_0138 nthuse joo hi a kgwatjhoha
196_0139 ho bapatsa le phapanyetsano ya
196_0140 a atileng a tb a
196_0141 ha ho sa na ka
196_0143 sa le ba o rerela
196_0144 ditlamatlama ba ka o phekola
196_0145 la sesole la bothori le
196_0146 ke badimo ba mmontsha leru
196_0147 ho ne ho ka ba
196_0148 israel defense forces
196_0149 ba ne ba qhomaka ba
196_0150 league baseball team
196_0152 e atlehileng ho fihlellwa ha
196_0153 ha re hle re di
196_0154 ho na le tlhokeho e
196_0156 ho re ke kereiti yabohlano
196_0157 a morafong oo a bea
196_0158 kgonong a mo futse ka
196_0159 hobaneng o ne o sa
196_0162 o mo ja a le
196_0163 a foreshe a bonojana ho
196_0164 sa tswalo le karata ya
196_0165 ba mo foseditsenge ie ha
196_0166 tshwaya ke maikutlo a motshwayi
196_0167 ho ba bangodi babohi le
196_0169 le ho kgannelwa bohatong e
196_0171 wa difate o ka nqane
196_0173 british foreign secretary
196_0177 le ho thunthetswa ka ho
196_0178 eo a ke keng a
196_0179 le tshibollo e fihletsweng ka
196_0181 ke be ke wele ka
196_0182 sa bookamedi ho na le
196_0183 ho ba le dikri ya
196_0184 california state university
196_0185 qabang ya ka le ba
196_0186 di kakatwa ba ne ba
196_0187 kgotjwa e le maoto mane
196_0189 ho na le ho se
196_0190 le ha mofammere a mo
196_0191 b c d e ho
196_0192 ya my wellness ya webosaete
196_0193 o ne a tadimane le
196_0194 a sa ka a tsotellwa
196_0195 ha di ne di kgabola
196_0196 supileng sehlekehlekeng sa robben ha
196_0197 le ho re fotseke ntjeng
196_0198 ke e ba batsehang o
196_0202 internet service providers
196_0203 lethoko o ne a tadimane
196_0204 sepikara ke motlotlo ho tlaleha
196_0205 ne o re direkoto pehelo
196_0206 nakwana e re nengneng a
196_0207 ha metjhini e se e
196_0208 dibeso le dikhemikale le ho
196_0209 wa monahano daekramo tjhate e
196_0211 ho na le bosara bo
196_0212 o sa re natsa ka
196_0213 na o entse kopo ya
196_0214 president barack obama
196_0215 e tebileng ya phetolelo dipuong
196_0217 ke sefeng se re tlisetsang
196_0220 ba ho se be le
196_0221 nehela ka sampole botlolong e
196_0222 e ke ke ya itshetlela
196_0223 ho kgwathwa ha konopo ya
196_0224 e balletsweng e le e
196_0225 states armed forces
196_0226 jwaletjena o ne a se
196_0227 ke ha a shoba mathobisa
196_0228 a ho ikamanya le pallo
196_0229 amohetsweng le ho ya ka
196_0230 tlokoma ha ke ne ke
196_0231 a hlokahetse ho ya tlatlapa
196_0232 topological space
196_0233 o ye a re ngwanamahana
196_0234 le a thekesela le ka
196_0235 o se a re ptjangptjang
196_0236 otto von bismarck
196_0238 le barwetsana ba a ba
196_0239 ya sa di hadikelang ho
196_0240 ho qhekanyetsa wa mphato ka
196_0242 ne ke sa mmone le
196_0243 ba nkela motjhesi koloi ya
196_0244 le molatswana o phallang lesodi
196_0246 ha ho bapiswa le ho
196_0247 le ne le le lekgubedu
196_0248 ho bafani ba tlhokomelo ya
196_0249 application programming interface
196_0250 ho ya ka kutlwusiso ya
196_0252 soviet socialist republics
196_0253 se kgwatha senare sa katara
196_0254 mohopolo o hlahisitsweng moleng o
196_0255 o qakile ke ha ke
196_0256 e qaqisitsweng sehlomathisong sa a
196_0257 le ya metjhining e betlang
196_0258 di bapisa ie ho di
196_0259 captain james cook
196_0260 semomotela pabala twadi e padileng
196_0261 ho be le tsamaisano le
196_0262 sekiri sa ho hama e
196_0263 eo ke e palamang ka
196_0264 re ka ha ditifikeiti di
196_0265 o ke ke wa kotjwa
196_0266 hoya kamelao e kamorao no
196_0267 ditonele dikwari le ho ripitlwa
196_0268 pheha o bohale le ho
196_0269 ke mo tshabang ho nkgisetsana
196_0270 single transferable vote
196_0271 mo rekela motjhini o rokang
196_0272 ya dumelletsweng wa tlhakiso diofising
196_0273 kgutsitse tu yaka ha ho
196_0274 e se e le morwetsanyana
196_0275 o ne o se o
196_0276 baithuti ba mophato o mahareng
196_0277 internal combustion engine
196_0278 eo ha a palama a
196_0279 e le baneng le ditsamaiso
196_0280 le lera la lefufuru lefufuru
196_0281 ho lebeletswe ho ya ka
196_0282 ke kantoro ya bongodi ka
196_0283 wa kgodiso eo ntataemafikeng a
196_0284 ha ke ne ke pepile
196_0285 e kgonahalang le e ntshetsang
196_0286 ba mohlomphehi seeiso mohai slp
196_0287 coronary artery disease
196_0288 ha ba hopolamora eo wa
196_0289 ha e le bankeng e
196_0290 ha a se a bolaile
196_0291 nuclear weapons program
196_0292 o ne a lebohuwa ka
196_0293 o se o lahlehetswe ke
196_0294 e ne e le modumedi
196_0295 a lohilweng ka therisano le
196_0296 ba kwetliswang le bakwetlisi bakwetlisi
196_0297 boholoholo ho ne ho na
196_0298 sa ba utullang dipatilweng ho
196_0299 ba di embryo di ova
196_0300 ke toloketswe le ho hlalosetswa
196_0301 mahlaba ha ba mmolella ho
196_0302 re o se a di
196_0303 ba ngodise sehlopheng sa bolo
196_0304 le se ke la nkella
196_0305 le ka la re arohanyang
196_0306 sa itekanelang ba tsofetseng le
196_0307 ho ka ba jwang ha
196_0308 ha e sa le yo
196_0309 church turing thesis
196_0310 asian financial crisis
196_0311 dibanka mabenkele a mabenyane dikgwebo
196_0312 studio le setsha sa transmishene
196_0313 di se di le mothating
196_0314 a se tlohellwe a ntshe
196_0315 ba sa ngodisang ha ba
196_0316 ntshetsopele ya molao wa motheo
196_0317 o mogn oo ba o
196_0318 soviet red army
196_0319 early church fathers
196_0321 boele o fapose le ho
196_0322 la re ke le nyaye
196_0323 ha e a ka ya
196_0324 re ke mo hloile hampe
196_0325 wa dulela ho rabaka tje
196_0326 he e ye e mmalehele
196_0327 berne convention berne convention ke
196_0328 le meho polo ho lekaneng
196_0329 metal gear solid
196_0330 se sa lekanngwang se ke
196_0331 di mesana ba ka o
196_0332 ba matshwele a baqobelli ba
196_0333 ke thabele manyofonyo ao o
196_0334 ho ba o ba nehe
196_0336 ke sehwa ke letswalo ha
196_0338 ho tliswa ke tshebedisanommoho e
196_0339 le lefatsheng la komello mahwatateng
196_0340 kope ho o fa setifikeiti
196_0341 north west company
196_0342 la ho hlahloba la rebate
196_0343 mosuwehlooho a ne a mema
196_0344 ha ke ne ke re
196_0345 british armed forces
196_0346 e le bahlodi e le
196_0348 ha ke a re ke
196_0349 ba di faetseng makgistrata a
196_0350 hlomamisa dikomiti ho ya ka
196_0351 ho se na moloko o
196_0352 palesa o mo sheba ka
196_0353 le ba ma komonisi le
196_0354 le ho ja re sa
196_0355 a kopanang le sekweta se
196_0356 se a thusana se arolelana
196_0357 e phethahatswe le c nkela
196_0358 le tshwaneleho ya ho ba
196_0360 ka mawala a hokahantsweng a
196_0361 a be a hatise pasa
196_0362 sa lepoqo ha se kgutse
196_0363 o atlehe e le ka
196_0364 ne a ye a sadise
196_0365 se a retlile moletsane ka
196_0366 tu ka ho panya ha
196_0367 ba di je ba ke
196_0368 ha a sa batlane le
196_0369 ho re o ne a
196_0370 ba tsheletseng ba thontshweng ke
196_0371 na e be le a
196_0372 ne a sa itlwe ka
196_0373 ba nebasena boipuello o ne
196_0374 re o kgopo le ho
196_0375 se o fihletse qeto eo
196_0376 bonwang le ho ya ka
196_0377 ho ya ka merabe moetlo
196_0378 wa bodumedi gospel o sa
196_0379 established diplomatic relations
196_0380 e ka hirisetsa khamphani ya
196_0381 le phumantso e ntlafetseng ya
196_0382 a le lemo tseleshome le
196_0383 e sebeletsang e ikaraballang ho
196_0384 o thulana le meleko ya
196_0385 ho ekets boikgathatso ba ho
196_0386 le ho nkelwa dikoloi ha
196_0387 o ntshofaditsweng a na le
196_0388 ho buuwang ka yna e
196_0389 sa khiro se saennweng ke
196_0390 o di tsebise ka kopano
196_0391 o qeta o be o
196_0392 sekete ya thelevishene e kwalehileng
196_0393 hangata ka ho nepahala le
196_0394 thesela mmadikotwana eo malekupa a
196_0395 a ba a ba a
196_0396 e be ha e ne
196_0397 ke tsosa dibata masene ha
196_0399 o e tlamella lekaleng o
196_0400 economic cooperation apec
196_0403 le ditswejane ho le mathisa
196_0404 mmutlanyana o ne a le
196_0405 dipatlisisomme a mo eletse ka
196_0406 a ne a ntseabua ka
196_0407 ha molwantsi a ne a
196_0408 wa tokoloho eo a e
196_0409 na o ne o na
196_0410 ba hlokahalletsweng ke bahatsa ba
196_0411 eo ka menahano e tiileng
196_0412 mafosi o be o tshehetse
196_0413 dingaka di be di phethile
196_0414 kotulo eo ba e behetsweng
196_0416 di se di kgethilwe di
196_0417 dikobo le ho mo busetsa
196_0418 he ha e le mo
196_0419 human development index
196_0420 pope benedict
196_0421 tharo a b le c
196_0422 taba ya ho fana ka
196_0423 ao o sitwang ho a
196_0424 bo sa lokang bo ka
196_0425 ha o a lokela ho
196_0426 ba na le mamello mamello
196_0427 ya mo nyalang ha rakgadiae
196_0428 ya lokileng ho ya sa
196_0430 setereka sa maseterata wa pretoria
196_0431 ho a ka ba le
196_0432 le sa kgetheng mofo ho
196_0433 o a mmakatsa ha o
196_0434 e ne e le sephankgahadi
196_0435 ka ho re ho na
196_0436 tshwaretseng sa boto se sa
196_0438 a ne a lwanne le
196_0439 wa di raha e sa
196_0440 o so ka o fetolelwa
196_0441 north atlantic ocean
196_0442 o ka re sethothokisi se
196_0443 di re ke sonasesosa sa
196_0444 final resting place
196_0445 ba ke re o nkgumamele
196_0447 faatshe ba le mokatong o
196_0449 le ntatemoholo mmamaema le ramaema
196_0450 diteboho ho metswalle le bomphato
196_0451 tsepamisa maikutlo haholo mopeletong le
196_0452 ho lekana ha maloko a
196_0453 e se e tshwere o
196_0454 ne e le moetlo o
196_0455 bomenemene le ho hokahana ka
196_0456 ka beile le ya ho
196_0457 ba dikgotswana ba se ba
196_0458 o ke ke wa ba
196_0459 o lahla dithatho e be
196_0460 ke ke ya ba le
196_0461 matjhabeng e ye e be
196_0463 e theohang panama o inyanyaditse
196_0464 matlafetseng le e ntlafetseng e
196_0465 a ratane mmebadisana ba ne
196_0466 nyaya la koloba ditletlebo di
196_0467 ha e le ka sekotwana
196_0469 ba ye ba re ha
196_0472 ka metswako e fapafapaneng ya
196_0473 ko re phetele he ka
196_0474 ha re ne re ka
196_0475 letlole la inshorense ya ho
196_0476 television series debuts
196_0478 ya ho fa medimo dimpho
196_0479 ke na le kgwaonyana ka
196_0480 e kangmotho o ka tlolela
196_0481 re tlotlolotse re ne re
196_0482 be a se a di
196_0483 a mokokotlo neural tube defects
196_0484 maikemisetso maemo le sebopeho ka
196_0485 diphepetso le ha ho le
196_0486 a ye boyabatho eka makatikati
197_0001 afe a ka imela afe
197_0002 ha a ne a le
197_0003 e na le matla a
197_0004 e ne e le molotsana
197_0007 e sa kgolweheng fomula ya
197_0008 le ho butswa ke a
197_0009 re ke ke ra o
197_0011 selehae le ha e se
197_0012 rata ka pelo ya ka
197_0013 a se thibele mohlekefetsuwa ho
197_0014 tlong ho kgahlanyetsa masopha le
197_0016 le ya maekgepeta ka ha
197_0017 ho be le nthonyana e
197_0018 ya boahi ho ya ka
197_0019 ho kgorohahoaka o ne o
197_0020 golden gate bridge
197_0021 ho fuputsa le ho iphumanela
197_0023 ho fapanyetsana o ne a
197_0025 a le tshobotsing ya makgonthe
197_0026 ba eketsa le ho atolosa
197_0027 laela le ho laolla dikepe
197_0028 ne a mo lelekile kgetlo
197_0029 potele e kgwathwang ka lehlaka
197_0030 le ho rekwa ha ditswa
197_0031 e felletseng le tokiso ya
197_0032 ke swabile nko ho feta
197_0033 ba di tswasitseng le ho
197_0034 ke wa etsahala le kgale
197_0035 serapeng sa a a nehelane
197_0036 di ye ho ya ka
197_0037 ka mehla ke dula ke
197_0038 phelang ka bolwetse bo sa
197_0039 a nehuwe tesello ya ho
197_0040 ya lehloyo ha e adumellwa
197_0041 botjheng ba ka ke ne
197_0042 e ha ella ng ya
197_0043 e le ho ipeha ka
197_0044 ka ho latellane letswapong la
197_0045 a ke ke a phela
197_0046 le ho alashwa ka ho
197_0047 le tshusumetso e leeme e
197_0048 e thakgoha ke ha ho
197_0049 bo bokaalo ho bannanyana le
197_0050 e lemariha mmedikolo di phomotse
197_0051 middle eastern countries
197_0052 ha ho eketswa metheong e
197_0053 boyabatho eka makatikati o tena
197_0054 stephen jay gould
197_0055 e le sehlomathiso sa a
197_0056 ka toboketso lentsweng le phetwang
197_0057 ha ho sebediswe di a
197_0059 united states army
197_0060 di fokaela sebaeng ke o
197_0061 o ka ikisetsa samane ka
197_0062 se senyenyane ha kale setla
197_0063 phatlaladitsweng ka ho le letshehadi
197_0064 le mafapha a diprovense a
197_0065 e ikarabella mesebetsing e mengatanyana
197_0066 le divaerase dibakethiria le c
197_0067 ba difariki ya ka ha
197_0070 le sekgukhuni o ne a
197_0072 national security agency
197_0074 lisp programming language
197_0075 dira dibatana le dinyamatsane di
197_0077 o na le mohono o
197_0078 le makaqabetsing ha ho na
197_0080 ke ha le se le
197_0082 ho alashwa e sa le
197_0083 ho ya ka tjhebahalo ya
197_0085 mehoding eo o e abelang
197_0086 seeta bo utluwa ke monga
197_0088 le opileng kgomo lenaka ke
197_0089 maburu a ba phedisa ha
197_0090 atlehisitswe potoloha ho ba batlatsi
197_0091 ha ho thenthetswa le a
197_0092 ho sa le hongata ho
197_0093 american television series
197_0094 tuba ha eo a se
197_0095 le ho e kama wiki
197_0096 le matlafatso ya moifo wa
197_0097 ya letoto la web smart
197_0098 re o a mo qoqisa
197_0099 ho qhoba bosiunyana bo le
197_0100 ba koro outse dinawa dilentils
197_0102 russian civil war
197_0103 o alafang e letotong la
197_0104 phomoditswe ke ha baqolotsi ba
197_0105 na o ne a qetele
197_0106 joo hi a kgwatjhoha atlolela
197_0108 ho ne hobile ho le
197_0114 mehlala e metle eo a
197_0115 ho o batang ba setseng
197_0116 ba na le tb e
197_0117 diphuputsong le manollong ho ikamahantswe
197_0118 eo ho ka sebetsanwang le
197_0119 ya mefutafuta e batlang e
197_0120 epela ba mo rwesa ntlwanalehlanya
197_0123 tshehetsan g di bopil we
197_0124 mmokelletsi wa matlole ya ka
197_0125 motshehafuma o a ipiletsa b
197_0126 pokelletso ya matlole ha se
197_0128 le neeletsano e momohaneng e
197_0130 tlhahlobo ya laesense ya ho
197_0131 ho ja masapo a hlooho
197_0132 wa e laolla ho website
197_0133 le tsebilengthabo le nyakallo ya
197_0135 ho kgalengwa le ho tataiswa
197_0137 ya b sc b sc
197_0139 adonsonia digitata se tsebahalang ka
197_0140 moratuwa ke lebohile ho menahane
197_0141 ngwaneso ke lahlehelwa ke tshepo
197_0143 be e se e putlama
197_0144 ho ikamahantsha le ho phathahatsa
197_0145 ho re rakgwebo a ingodisetse
197_0146 gold mametja o na le
197_0147 la phoofo mafi yogathe di
197_0148 indebted poor countries
197_0149 disanthao hamonate o mebala yamookodi
197_0150 o se o behile meja
197_0151 hlabang makotikoti a sa tshelang
197_0152 ipolelang o saenne ke le
197_0153 motheo ka nepahalo ka sewelo
197_0154 george bernard shaw
197_0155 a se a nqhobella majwe
197_0156 ke kgothaditswe ke ha a
197_0157 hlorile o kgapong mo tlamolleng
197_0158 world wide web
197_0159 o se ke wa re
197_0160 tlatlatjwe tshwengwe tsha biswe sokodiswe
197_0161 ha ke re ke ne
197_0162 na le monyetla wa ho
197_0163 ba di antseng letsweleng ke
197_0164 national park service
197_0165 prudence e ne e le
197_0166 o ka be o di
197_0168 ka bo a e i
197_0169 itshole ho se ho senyehile
197_0170 ho ba ba nyale ba
197_0171 ba rutehilemme ba ikemetse kahohle
197_0172 ya lenane la borapolasi ba
197_0173 british west indies
197_0174 ha o se a lebane
197_0175 kwallwa a ba a ahlolwa
197_0177 ho gems ka kotloloho le
197_0178 ya ho ja o ka
197_0179 palohare e ne e finyelletswe
197_0180 video game consoles
197_0182 le akanang le la atlantic
197_0183 qhe qhe qhe qhe qhe
197_0184 ba sotle ha o ka
197_0185 se tshepisitseng fifa le dibapadi
197_0187 diterateng ba pepesehile le ho
197_0188 na ho sa na le
197_0189 leeme tshekamelo le kgethollo di
197_0190 nar aron le al ano
197_0191 rotha mofufutso o tlalang noka
197_0192 ya mongodisi e romela mangolo
197_0193 ke ne ke tlile ho
197_0194 post world war
197_0197 nuclear test ban
197_0198 monono ke mohodi ke mouwane
197_0200 ho ba bobebe ho e
197_0202 ao ho atisang ho kopanwa
197_0203 mobetano le hlahellang thelevisheneng le
197_0205 cold war leaders
197_0206 masetladibete masaakokometse meferefere le merearea
197_0207 e jwaloka di ngo le
197_0209 ba ne ba siyana mekgahlelokabobedi
197_0210 ke ne ke sa hopole
197_0211 lebanese civil war
197_0212 bookelong ka ya pompong ho
197_0213 le seburu ha ho hlokahale
197_0215 se o hlwele matsatsa ho
197_0217 academy award winning
197_0218 matloleng a dibenefiti matsatsing a
197_0220 hei hei o se ke
197_0224 la ditswantle sa ho nnetefatsa
197_0225 motjeko wa puleng motjeko wa
197_0226 a amohelwang ho ba eo
197_0227 los angeles rams
197_0228 o ne a sa bone
197_0230 eastern caribbean states
197_0232 la bonkantjana tsholo a tlosa
197_0233 ne a sa kgarumemmakarabelo motsotsong
197_0234 e badileng qotsa polelwana eo
197_0236 ho re mmelaellwa eo e
197_0239 eo o e fumaneng ho
197_0240 e bakile ho fokotseha ha
197_0241 ke eo a emakalaneng ya
197_0243 ba se ke ba o
197_0244 o tekong e le ho
197_0245 global financial crisis
197_0246 o re ee na o
197_0247 ya harare eo a e
197_0248 moqoqo oo ho wona o
197_0249 o ke ke wa ntshitisa
197_0250 mo tadimile ka leihlola kaine
197_0251 eo hothweng ke ya matarapane
197_0252 o re le ne le
197_0253 se manol lwa ka bo
197_0254 e emele ka ho pharalla
197_0257 o ne a sa le
197_0258 pheello di ka o hapisa
197_0259 tapeiti o a tsorama a
197_0260 tieho e tswala tahleho ho
197_0261 la diminerale le eneji lebatoweng
197_0263 moithuti a hlahisitse le ho
197_0264 haholo mopeletong le popong ya
197_0265 morongwe bo rotetsa le ho
197_0266 letle la ho phetha morero
197_0267 mo foseditsenge ie ha a
197_0269 mobishopo biala o ne a
197_0270 e a phethahatswa lnms ke
197_0272 ke ke ra o qhalla
197_0273 ba ne ba tlile kwano
197_0274 e le ha a itlisitse
197_0275 ke sa re ha se
197_0276 a mo aka ha ba
197_0277 ka mokudi ya kulelang lefu
197_0278 le ka ho emisa morusu
197_0279 ke ka hoo ke reng
197_0281 ka pokothong ya ka a
197_0282 programming language
197_0283 re habore a sa e
197_0286 kutile le ha ho ne
197_0289 thomo e letlapahadi mohloka ho
197_0290 jwalane o ne a se
197_0292 ya ho ya hlahlojwa ke
197_0293 ntjhafatso ya dilaesense ka ho
197_0294 le thohako edictal citations le
197_0295 sethatong sa kgato ya ho
197_0296 teyeng motohong ho dipompong dinomaphodi
197_0297 omisitsweng le dierekisi cauliflower le
197_0298 se sekgutshwane sa akha onte
197_0299 ho kgoneho e ka tiiswang
197_0301 bohole e be ho ka
197_0302 o e boleke e le
197_0303 ho o hlaba malotsana le
197_0304 a se a hodile ke
197_0305 ne ba haketse ba re
197_0306 ha ba re o itlhatlhobe
197_0307 le ha ba ne ba
197_0308 ho tataisa boramapolasi malebana le
197_0309 ya fihlileng a ntjwetsa sefahlamahlo
197_0310 tsejwang ka ante nuptial contract
197_0311 ba mehleng le mekaubere e
197_0312 ya krosari e ka kgutlisetsa
197_0313 e se e ithata ka
197_0314 a ka ho o kgopisa
197_0315 a na ho se tshwanelehe
197_0316 le ka hlompho o o
197_0317 le dikgothaletso tsatsona di ka
197_0318 tlhodisano le ya boinotshi ho
197_0321 o mo hlanohetse ho mo
197_0323 tlhahlobo ha di tlo phatlalatswa
197_0324 o mpolelletse o sa pate
197_0325 e a nkimela e mpolaisa
197_0326 ke leboha kgutlana la ka
197_0328 wa dikgau le balekane ba
197_0329 e hate ka maro bo
197_0330 letlakala ke ho ipolaisa makamotela
197_0332 re ne re ka ra
197_0333 a dinakedi le a diphokojwe
197_0334 hip hop music
197_0336 ho thunthetswa ka ho theolelwa
197_0337 o sa lekanngwang ka ho
197_0338 e ke ng ya sireletswa
197_0339 ba e butswela ba e
197_0340 ho ne hobonahala ho re
197_0341 leralla a ke ke a
197_0342 ke tshwantshiso athe c ke
197_0343 ba ho thibana ha methapo
197_0344 oo le ka o tshepang
197_0346 ke ya medupe e sa
197_0347 ba ka tshepjwang le ba
197_0348 hot chili peppers
197_0349 ya dithaere ke paballo ya
197_0351 bo sa lokang ba ba
197_0352 ka ha ho nahannwe temaneng
197_0353 ba le sa yonajwalo ka
197_0354 ba neng ba ntse ba
197_0355 united states census
197_0357 mo tswalang o ne a
197_0359 be e o jesetse kgwebeleng
197_0360 o ka nketsang ha e
197_0361 ho lefa lekgetho la nakwana
197_0362 o wa ka ke wa
197_0363 best supporting actor
197_0365 ho ya ka baamohedi ba
197_0367 e ne e re e
197_0368 ka ha e a kgotsosofala
197_0370 ho tsoseletsa selekane se setjha
197_0376 a le monyebe ho ka
197_0377 c le d ka ho
197_0379 paseditseng botitjhere le kereiti eo
197_0381 eo o se fihlelletse ditatemente
197_0382 bo rarolohe bo rarana le
197_0383 ha a tshwanelwa ke ho
197_0384 e sa le elwa wa
197_0385 ne a sa ratelereko o
197_0386 a re mofifi ke saletswe
197_0389 di radileng ho ke ke
197_0391 maholwanyane e be a kolokiswa
197_0392 le ofisi ya motsamaisi wa
197_0397 ha se monwana ha le
197_0398 kansas city royals
197_0399 ha ke ne ke se
197_0400 swine flu e se ke
197_0401 molatswana o phallang lesodi o
197_0402 a ka e fetisetsang ho
197_0403 e le mampodi wa teransefala
197_0404 a dube thankga a be
197_0405 na mosadi ha e le
197_0406 amo kodisa a be a
197_0407 ho tswa thothokisong e botsi
197_0408 mario kart ds
197_0409 potlakile le ha re sa
197_0412 dithena di iketlile di ja
197_0413 ke kgaohana a ko iphe
197_0414 ha a reteleha a re
197_0415 le thope e tshehlana eo
197_0416 ha ho sa kgonwe ho
197_0417 bo naka di maripa ka
197_0418 le ha ho lejwalo mekgwaena
197_0419 le ntjhotjho ke ba sebetsanang
197_0420 di loke ho ya ka
197_0421 bo botle le polokeho merafong
197_0422 ba ne ba mo kgalemelletse
197_0423 ho ikitlaetsa le ho ba
197_0424 se ke wa ba wa
197_0425 entered world war
197_0427 ka ba ba ho se
197_0428 e sa ntsane e tswela
197_0429 la tswekere le mahloko a
197_0430 a dti ka manane a
197_0431 share capital di tiisetswe ke
197_0432 ao a ka tobanang le
197_0433 le tsepameng nlheng ya ponelopele
197_0434 eo se e thonyeditsweng e
197_0435 ho ba yuropa le bophirimela
197_0436 ho ikahela boitsebelo ba rarolle
197_0437 ha ho se ho senyehile
197_0438 le motsekiswa ha ba ya
197_0441 e ne e se ya
197_0442 ne ho hlakile ho re
197_0443 institjhuteng dikhampaning dikoporasing le baleming
197_0445 ja ha o na ho
197_0446 ho a atleha ho fihlella
197_0447 ho tlisa phetoho le ho
197_0448 ho faswa e bo ba
197_0451 se mo sune ha a
197_0453 a betilwe a bolailwe a
197_0454 a kgannang bahwebi ba rekisang
197_0455 ka sereledi a phoqeha ha
197_0456 saenetswe ke baamehi ba konterakeng
197_0457 se na mosola eke ho
197_0458 ha tlelaemete ho ka ba
197_0459 ba se etsahang ha se
197_0460 mo kgwatshebetso wa ho to
197_0461 ka seamohedi sa tshisinyeho ya
197_0462 ho kgonahalang ho hlalositswe ka
197_0463 ha a tsekiswe o a
197_0465 sa itsebe a be a
197_0467 supply chain management
197_0470 te maak is nie kinder
197_0471 bo ne bo se bo
197_0473 ba e ola ka sekotlolo
197_0474 dipampitshaneng ho se ho tsamauwa
197_0475 di ne di mphapanelana di
197_0476 e re ka ha o
197_0477 ke re o nkgitlile dibete
197_0479 nkabe ke kgaohana a ko
197_0480 ke la ya le kgonwana
197_0482 mokopi eo ha ho hlokehe
197_0483 a sa tshwaneng a hlokometseng
197_0485 e bolokehileng ya ralewa le
197_0486 socialist federal republic
197_0487 e le e tlokomang ekgaphatsehang
197_0488 a o memele ho kenela
197_0489 ya roma ha mafefowane ke
197_0491 le ho bakang ho kgathatseha
197_0492 ka fihlellang ho ka ya
197_0493 e ne e lemonyollane o
197_0494 james clerk maxwell
197_0496 ya masetso e ikarolang ho
197_0497 le ha o ka ba
197_0500 tamiflu e ke ke ya
197_0504 e ka sebediwang betere ka
197_0507 a qophella ho iphetetsa ho
197_0508 o ke ke wa utlwi
197_0509 mmathabang ha ke re o
197_0510 ba saene phatlalatso ya botshepehi
197_0512 ha di hlaloswa ke sentebaleng
197_0514 e lebiswe ho mohiriwa mokodi
197_0515 bo bashana ha ho na
197_0516 ya betlileng ya pentileng ya
197_0517 tsotelle ha bathobabaholo ba ka
197_0518 ke mohiri e moholohadi wa
197_0521 sebedisitse melao e hlokehang ya
197_0523 ka ho nepahala le ka
197_0525 ka phethahalo le ka ho
197_0528 a o susumeletsang ho se
197_0529 ba boholong ba bommasepala ba
197_0530 ho ya ka minerale e
197_0531 o saennwe ke moamehi ya
197_0534 le ho kolokotjhana e le
197_0535 e apereng letlalo la nku
197_0537 ha ho buuwe ka ho
197_0538 o tiisetsang le ho se
197_0540 vincent van gogh
197_0542 ke namane e ka mpeng
197_0543 tseko ho realo mmatseko a
197_0544 a ne a se na
197_0545 ha a na ho se
197_0546 ke a mo suna ha
197_0547 baeme matlotlosia ba seba o
197_0550 sele le bohweng ba ntja
197_0552 o se a thenthetsa a
197_0553 ke qati o a lomisanwa
197_0554 a sa jeseng ditheohelang a
197_0555 ho ba e sa belaetseng
197_0556 e se e le maobane
197_0557 oo ho laetsweng ka oona
197_0558 ba ne ba e na
197_0559 le di trade unions ho
197_0561 ngodiswang di hlokwa ho lefella
197_0562 ka ho se le fe
197_0563 ya ba ya ntshehisa ke
197_0564 le kamano setjhabeng ho ka
197_0565 nnileng ba ba bokotsa ba
197_0567 ka makgetlokgetlo ho o lemosa
197_0568 tlela diaparo a di pata
197_0569 ho kenyelletswa mmapa dikerafo ditafole
197_0570 ho kgeloha tatelano ya tlhahlamano
197_0571 tshebeletso ya bolaodi bo ka
197_0573 ka katse a se hlwella
197_0574 ba antseng tsweleng la daggakraal
197_0577 wee ha ba ha re
197_0578 corperative koporasi le nkuwe lentsweng
197_0579 b c d mohwanto wa
197_0581 gnu general public
197_0582 walt disney company
197_0583 vep e na le tjhadimo
197_0584 population division year
197_0585 le mathisa ho le maqhekwana
198_0002 a le leqenyana ka bokgutshwanyane
198_0003 ya motjha o tjhele ya
198_0004 le meqoqong ya botswalle ha
198_0005 ne ke se sengangele a
198_0006 kgethilweng ya bamamedi ba habilweng
198_0007 sa benkeleng la ditshepe le
198_0012 e lokelaho ntlisetsa ngwetsi le
198_0014 social democratic parties
198_0018 ho teko ho o tl
198_0019 mafapheng a bokwetlisi boletsaphala le
198_0023 van der waals
198_0029 ya mo sikarong le ho
198_0030 ba ka ha ke sa
198_0031 ya ho kgethammabotle wa mautse
198_0035 community based natural resource management
198_0036 e ntenang ka ho fetisisa
198_0037 second vatican council
198_0038 ke toro eo ke ikemiseditseng
198_0039 orange free state
198_0040 o e fuweng ho tshwaya
198_0041 pheleu v o ne a
198_0042 e meng ya bohlokwa e
198_0043 eo ho ka kgelohwang ho
198_0044 e a tsitsipana e honyele
198_0047 british royal navy
198_0050 di phahamiswe le ho ntshetswa
198_0051 e ka letlwepe la masumuathebotsho
198_0053 ha bo yo ha ho
198_0054 bo weso ka ho ja
198_0057 second boer war
198_0058 a se ke a kgethollwa
198_0059 o bontsha bopaki ba setaele
198_0060 ne di mathile mantswenga hlahlalebajwadi
198_0061 ya mmuni ya ho bokelletsa
198_0062 le ditlontlollo re ka phelahamonate
198_0063 momahano cohesion ketso ya ho
198_0064 phupung ka ha o ne
198_0066 mosi o ka kubellang ho
198_0067 poere ya kheri matswai a
198_0068 a kgolwao potile le ha
198_0069 wa ilo wela matjoing kwana
198_0072 e potlakileng ya tlokotsi ho
198_0073 king james version
198_0076 ya ipolelang o saenne ke
198_0079 eo ba e jeleng ao
198_0082 ba ratang papadi ya bolo
198_0083 ha a ne a hlolwa
198_0084 ya mokato wa moaho oo
198_0085 following table shows
198_0086 ba habile kalaneng ha ba
198_0087 boston red sox
198_0088 bokolone le apareteite a bakile
198_0089 ya dikhampani e nkilweng ke
198_0090 eo ya diflete le c
198_0091 ha ho se ho ngangisanwe
198_0094 lomahanya meno e le ka
198_0095 qojwa ke ho re a
198_0096 ke re re le bolelletse
198_0097 ba mo tsebileng e le
198_0098 ba matebele a hlapang ka
198_0099 ho ya ka tshisinyo ho
198_0100 eknisheneng le ha e be
198_0101 fetolela ho e na le
198_0102 coptic orthodox church
198_0103 na ke ya mannte le
198_0104 e be e be mohlankanyana
198_0105 vene ho ne ho le
198_0106 e momohaneng e lebisang tlhalohanyong
198_0108 bo a raroloha ho fihlwa
198_0110 ho bokella le ho hlophisa
198_0113 thato ya tshwene terene e
198_0114 tayo ho ya ka melaotheo
198_0119 o ne a tlohile matatilele
198_0120 b na o ne o
198_0121 ne ke thothomela ke tshohile
198_0122 le na le mathatha ka
198_0124 ho se ho fetile beke
198_0126 le dierekisi cauliflower le broccoli
198_0127 ntlheng ya makgotla a ketsamolao
198_0128 ya fihlileng a lahlela lesapo
198_0130 ha se ditlhong le manyofonyofoseroki
198_0131 ka ha ho lebeletswe ho
198_0133 ho thwenge atile le ho
198_0137 a seke a ikobela boitlamo
198_0138 ka bolwetse bo sa foleng
198_0140 tjhehile e ne e le
198_0141 o haellwa ke kutlwi siso
198_0142 ka thuswang ho ka fihlella
198_0143 dulellane le ho inanatha ha
198_0144 o ie ditsietsing o ie
198_0145 ya akademiki ya learnership ka
198_0147 kathata le ha baseba efuwa
198_0148 re le ha ho le
198_0151 hleneng ke labohlano ho na
198_0153 a jelle kgwebeleng le ho
198_0154 ne ke le sefofu ke
198_0155 kopo ya thuso ya tjhelete
198_0156 se e hlomamisitse di nlb
198_0157 e sebedisitsweng metareng wa dikarata
198_0159 ya bohlwela le bonokwane bo
198_0160 a kgakgathisa mahanana e re
198_0161 ka mokgowa oo ntlafalo e
198_0164 unesco world heritage
198_0166 utlwe ntlhakemo ya ka tabeng
198_0167 new york jets
198_0168 bosemorafe le sa kgetholleng ka
198_0169 middle high german
198_0170 o ye a re tselakgolo
198_0171 bolela haebe o kile wa
198_0172 ba mo furalletseng ha a
198_0173 ke ho ikwetlisa le ho
198_0180 ho diphaka ho dihlathe difubeng
198_0181 united states national
198_0182 pikoko ka moaparo o lahlilemaharaswanyana
198_0185 e o lemosa ka ditleleime
198_0186 e ya nahanelwa leanong la
198_0188 nebula award winning
198_0189 be re ke ke ra
198_0190 mies van der
198_0191 ba sa emelwang ho ba
198_0192 h o amana le e
198_0193 motsaneng wa menkgwaneng ho se
198_0194 supang qotso di a bulwa
198_0195 sa a ha se ame
198_0196 e balletsweng e tlama letswalo
198_0197 ya makgiseterata ya kagisohape le
198_0198 nkimisitsenghobane a ne a re
198_0200 ee o ka re mopheti
198_0201 diofisi a se kea hlopheha
198_0202 lamohlolohadienwa ba ritsetsa katlase ho
198_0203 apartheid ha ba a ka
198_0205 british north america
198_0207 makwalata e ka fodiswa haholoholo
198_0210 yuraniamo le thoriamo boteng ba
198_0211 ho sebeditsweng lehlaso o be
198_0212 ka se fetolang ka masenenyana
198_0213 tjhakatsa ka mahahapa ke motsofehadi
198_0214 le ba sa ingodisetseng dikgetho
198_0215 ka ha di lokodisitswe tokomaneng
198_0216 ho be le tshwano ha
198_0217 ba ne ba falliswa ka
198_0218 ne a se a inyadisitse
198_0219 lohothwang serapeng sa a a
198_0220 sa jwetswe le ka ho
198_0221 a khompeuta a word processing
198_0222 ho ya ka ho kalwa
198_0223 ke ha ho tjhang ho
198_0225 ba meharo le ho ikgohomosa
198_0226 ha ke a ikemisetsa ho
198_0228 ba kgwathana ba sebaseba ba
198_0229 bonakganyapa a se a le
198_0230 e batle hang di haella
198_0231 ka bafetoledi bahlophisi le ditoloko
198_0232 ke e kgahlehang tjhabeng se
198_0233 eo a mo fileng matlaya
198_0234 ka ho sotlwa ka ho
198_0235 ka a mamellang masawana a
198_0236 pope urban
198_0237 fumanwa a le molato wa
198_0240 ya emellwang ka sepolo ho
198_0242 ba ya ba re if
198_0243 seterekeng sa great lakes re
198_0244 lekala le letle la ho
198_0248 lefiswang le ha ho le
198_0250 ye a re ha ho
198_0252 ho se tsube ke e
198_0253 di ka mpefatsa letshollo la
198_0254 a ne a mo laile
198_0255 ba vidiyo le ho tsekiswa
198_0256 buella setlokotsebe see sa moshanyana
198_0257 phamola ditsuonyana a sa mmotse
198_0258 ho se tsejiswe lebiso la
198_0259 ka tshwanelo mmoho le phethelo
198_0260 binary search tree
198_0261 le dindaseteri e le ho
198_0262 prime minister tony
198_0263 ka mmadiepetsana watshomong ha a
198_0264 african unity oau
198_0266 o sa ye secunda o
198_0267 ba ha a na diprotheine
198_0268 dicereale reisi ditapole setampa phoofo
198_0270 ba kgohlanong lemolao ba tobaneng
198_0271 mo qwaya a ba a
198_0272 eo a mo ratileng dilemolemo
198_0273 dac doj pansalb saqa le
198_0275 o le makaqabetsing ha ho
198_0276 re di lwanetseng ka ho
198_0277 lebelletse moreki le mofepedi ya
198_0278 khampaneng ee o ne o
198_0279 lekgolo re nyalane ho salang
198_0282 hlokomoloha ho se tshwane ha
198_0286 ya ka mehla le tlhahiso
198_0288 a le natala tlhware e
198_0289 o ne a o etetse
198_0290 molefi o ke o mphe
198_0292 ngwahashome ngwahakgolo bapabi le ho
198_0294 a inyalanyang le dipallo le
198_0295 jewish theological seminary
198_0296 le moferefere e se e
198_0299 ya mmabotle le rabotle ba
198_0301 ruri e ne e le
198_0302 lekgotleng le buletsweng bohle la
198_0303 ba ditekesi ha ba kenye
198_0305 ho iketsetsa kuno le diprojeke
198_0306 a welang lekaleng le le
198_0307 le pala ha ba se
198_0308 thokonyana ho maseru wa qwading
198_0309 kgosto nkabe ke re llang
198_0311 ya hlabehang a hlabehe eitse
198_0313 ka ho se je hnatle
198_0316 mohobelo a b kgoro ke
198_0317 ke ba tshebeletso ya databeise
198_0318 a ho ba bothateng bo
198_0319 ha a itlhompholle ka ho
198_0320 ya ntsotellang e le ka
198_0321 sa roleleyathunya o ne o
198_0322 ke letlaka haufinyane ho fetafeta
198_0323 e ne e kenyelleditswe ho
198_0325 dikele leotlile letswapo le ka
198_0328 melbourne football club
198_0330 o o fetisetsapelebakengsatsatlhahlobisoyammele patholoji thekenolojiyabongaka
198_0331 o molokoloko ha ho diratswana
198_0333 ba ne ba mokopanetse ka
198_0334 o motsumi wa meya ya
198_0335 ya phumantsho ya matlo ya
198_0336 shwalane e se e tshwere
198_0337 ba le pherekano eo ho
198_0339 motjodi o tono se sephatswa
198_0340 e fosahetseng e na le
198_0341 ke mahodi a patile maeba
198_0342 le ne le hanella mmetsong
198_0343 short story writers
198_0345 ya phetiso le taolo ya
198_0346 ka tjhepisi ya stimorol e
198_0347 o imme ya nyarosa kgwapo
198_0348 lifetime achievement award
198_0349 international space station
198_0350 tshwanelehileng di amohelwe ke registration
198_0351 ba ramautla ba re etsisang
198_0352 polasing le menontsha e na
198_0353 memela le meketeng o ratana
198_0354 tlatsa dikgeo ka mahokedi a
198_0356 northern mariana islands
198_0358 judase ha a ne a
198_0359 ne e le phephetso e
198_0360 saint john river
198_0361 a amohetseng a re thusitse
198_0365 traditional chinese medicine
198_0366 fetolwang ka ho ya ka
198_0367 baithaopi le ba sebeletswang ke
198_0368 ha e le a ditsietsi
198_0369 american film directors
198_0370 ya ka e a thulama
198_0371 se ke la ntlhobaetsa ke
198_0372 ba ne ba le pelotelele
198_0374 states national film
198_0376 o ne a mametse ha
198_0377 re iqeke emoholo esere ra
198_0378 palo eo o e kopang
198_0381 ya boshodu ho tjhwatlwa ha
198_0382 european economic community
198_0383 ba ba tshwasehe kutlwisisong e
198_0384 e otlolohileng le ha e
198_0386 mamela ka tshetshefo ka sepheo
198_0387 tshebetso e bolokehileng ya ralewa
198_0389 ba lekganyane ho sa le
198_0390 le ha ho le jwalo
198_0392 a tshwanetswe ke ho ka
198_0393 ka mokotlaneng wa baki a
198_0394 matshwenyeho ao ba teaneng le
198_0395 re be re tsohe le
198_0396 ke no ebola tapole habedi
198_0397 latetswe le ha e le
198_0399 thero le mo kgoqola le
198_0400 ka ya kankere le ho
198_0402 nkgwebetha la re ke le
198_0405 a molaotheo a mosebesetsi wa
198_0406 le lehwatatanyana le saballetse ho
198_0407 cognitive behavioral therapy
198_0408 ba buisanang qotsong e ka
198_0409 mmusong wa provense ya freistata
198_0410 ho be le ho senolwa
198_0411 se bo bokeletswe le ho
198_0412 eastern orthodox churches
198_0415 ka ditlha ho kgontsha ho
198_0416 se o fetohile ha ba
198_0417 terameng ee o ka re
198_0418 wa setlokotsejana a se a
198_0419 boikara belo ba motlolamolao ho
198_0423 le phethelo semelo sa baphetwa
198_0425 re o tshwenngwa ke ntaramane
198_0426 e metjha ya sekimi ke
198_0427 le ho rutweng titjhere e
198_0428 meralo diqeto le kameho ya
198_0430 bohloko ba seeta bo utluwa
198_0432 a tsamaye le a e
198_0433 o ne a ka bellaellwa
198_0434 e hlokahalang ho batlana le
198_0435 ho ka fefolwa ke difefonyana
198_0436 ya dikanao e na le
198_0438 faeba tlelase patsi le seili
198_0439 united states military
198_0440 mo kgelosa le ho mo
198_0442 lekala la ho ithuta la
198_0443 ya moriti le khanopi ya
198_0444 ka ho rialo ha ke
198_0445 ya ka ke e bakilweng
198_0446 o se a nyetswe ke
198_0447 moshaneso ha ke re o
198_0448 o ke ke wa lemoha
198_0449 ho iteanya le majoro le
198_0450 sa ho entela feberu e
198_0451 bontsha ho ba sedi mehopolong
198_0453 new york times
198_0454 a se a suthile a
198_0455 e ithutwang ho isa puong
198_0456 be a mo lohetse mano
198_0457 new age movement
198_0458 australian prime minister
198_0459 ke wa ba wa di
198_0460 se bolele o be o
198_0462 wa sepalangwa se sebedisitweng thomelong
198_0463 a porafete ho ka ipehwa
198_0464 kgoro ke ha ho kenwa
198_0465 o se ke wa romella
198_0466 ba ho kgeswa le ho
198_0467 o ne o nyekilwe ke
198_0468 kabelo a sa le monyenyane
198_0469 ke re ke maobanyana a
198_0470 di bopella kahare ho ditekanyetso
198_0472 ba le kgaolo e ke
198_0474 ba di tshwaetsweng le ditekolo
198_0476 hoa ho a ka ba
198_0478 re imatahantse le banka ya
198_0479 a fumanwang ho bomarabe ke
198_0480 se kgopisehe o se hlekefetse
198_0481 ya lekanngwa ha e le
198_0482 ba se ba itshwantsha le
198_0483 ruburiki ho na le ho
198_0484 ba ka tsheptjwang ke ba
198_0485 mabone ya bohlophisi ya ho
198_0486 ka bobare ho ya ka
198_0487 accurate date information
198_0488 e fuphula sa phakwe tsuonyana
198_0489 ndoh le etseditswe ho etella
198_0490 le se ke la ya
198_0492 league championship series
198_0495 bo fetohakang le f ho
198_0497 ho lefshwa e le tefiso
198_0499 sa mekgahlelo ya ditsiane e
198_0501 fumanweng ho bafani ba tlhokomelo
198_0502 re re mo tlohelletseng tleneng
198_0504 intellectual property rights
198_0505 la diphetolelo le tlhaolo ya
198_0506 ho jewang hlenhlenyane ho ya
198_0508 re ke ke ra qhelela
198_0509 ka o tshwarisa mmamphele ka
198_0511 ba ho qhekanyetsa wa mphato
198_0512 metse ya ditoropo le kgodiso
198_0513 ya sekgutlo e ne e
198_0514 ka ha o le mokapotene
198_0515 le baahisane ba phallela ha
198_0517 le fifi sa phoofolo e
198_0518 o ie mahlokong o ie
198_0519 ditaemane ba ne ba di
198_0520 morumo morethetho metuta ya diphetapheto
198_0521 oo lentswe le ka bang
198_0522 ke pac e tshwanelehileng di
198_0523 environmental protection agency
198_0524 ya ya matamo a ho
198_0525 la ka le ne le
198_0526 be ha e ne e
198_0527 oo o o kgethileng ho
198_0528 ba menngweng ka boithaopo ho
198_0529 se ke lahlehetswe ke mamello
198_0530 wa sejwalejwale o tenyetsehang le
198_0531 ba hlanya ho ne ho
198_0533 sa di ja le ho
198_0534 ho re ha e ye
198_0535 infant mortality rate
198_0538 american medical association
198_0539 ha e ka ba kaenyana
198_0540 itebala ho re ba ya
198_0541 patanta eo paloyohle ya dipatanta
198_0542 je ba ke ke ba
198_0543 kalana ya moriti le khanopi
198_0544 nnyane a swaba ha a
198_0545 e na le ho rema
198_0546 seporo le dikou le ho
198_0547 sheshe le ha e le
198_0548 bitoha se ka mesha o
198_0549 ne a se a tlotse
198_0550 meraro ya ho hweba ka
198_0551 bontatemoholo ba ne baitshepetse ditaola
198_0552 royal australian air
198_0553 eo ho ne ho le
198_0554 e se hlole e ba
198_0555 trade unions ho ba fa
198_0556 e itebetse ho se ya
198_0557 dintja di se di thotse
198_0558 le hoketsweng tshepeng ya heke
198_0559 e ikemelang e le notshi
198_0560 music awards winners
198_0561 ha ho a ka ha
198_0562 bo naka di maripa ho
198_0564 a amoheleha ya ho shapa
198_0565 e fumanweng e le dimpho
198_0566 be pelonolo a be le
198_0567 ke ka maswabi ha ke
198_0568 tabakgolo e ne e le
198_0569 moreki a ka iteanyang le
198_0570 e ne e le mokolonele
198_0572 e tshehadi e sa tswaleng
198_0573 keletso e ahang e buang
198_0574 ho fokotsa le ho fedisa
198_0576 re ke ke ra swabela
198_0577 se ke lemoimana ha ke
198_0578 renkeng ya baragwanath barekisi ba
198_0579 indastering ya polatinamo ha ho
198_0580 ka kganyapa ho ne ho
198_0583 ka hapeterose a ne a
198_0584 e se e hlwahlwa hakaalo
198_0585 mesebetsing e tshwauwang ke baithutimmoho
198_0586 kotjwa ke motshwaruwa ka ho
198_0587 le ya taemane ho ka
198_0588 o se o falla ha
198_0589 ho ya ka molawana no
198_0590 a ne a sa tsube
198_0591 bo bokellwe le ho sire
198_0592 american musical theatre
198_0593 united states department
198_0594 le hlolwa ke ho itjarela
198_0596 tsekisang be e se e
198_0597 mahata e le marabe ya
198_0598 actor academy award
198_0599 e fosahetseng ya dihlooho le
198_0600 ya kgauta e na le
198_0601 ne a se a roballetse
198_0602 ya eketseha ka ho bonahalang
198_0604 ba ke ke ba ba
198_0605 mekgatlo eo eseng ya mmuso
198_0608 so fele tlhophollo ya ho
198_0609 ha o sa di hlokomele
198_0610 kgutlong sa mmila o kenang
198_0612 wa kgwedi le kgwedi o
198_0613 ka be o sa ka
198_0615 okosejene o ke ke wa
198_0616 ho kenyeleditse le tekanyetso e
198_0617 lokolla le ho re ho
198_0618 di se o tshwenye o
198_0619 le kgaphatseha ho setloholo sa
198_0620 tshimolohong o tsebile e sa
198_0621 se kwetsweng ho ya ho
198_0622 los angeles area
198_0623 se lebelletsweng k h r
198_0624 be a se a le
198_0625 ho na le mahlasedi a
198_0627 ka ho tsuba boikwetliso le
198_0628 ho hlahloba le ho ntjhafatsa
198_0629 ho ba le phihlelo ya
198_0632 ba ne na ye ba
198_0633 oo mohlolo o ke ke
198_0634 matleng le mananeong a matlafatso
198_0635 e be di na le
198_0636 ha e le ho rothisa
198_0637 le se tshohane le re
198_0638 ka ho sisinyeha ho hosesane
198_0639 le be le ditsebo le
198_0640 ha e ba le tlokotsi
198_0642 le ho tsetela le meruo
198_0645 ne e opa a nyokgoloha
198_0646 ke advocate le ha ho
198_0648 le ho lwantshana le botlokotsebe
198_0649 e tla be e le
198_0651 o ne a boetseatshwerwe ke
198_0652 ne a tadimeha a se
198_0653 le he e ye e
198_0654 o re bopileng ke a
198_0655 chicago white sox
198_0656 ka letsholo la ho baballa
198_0657 e kathoko ho tlhopho e
198_0659 alwana ya kgumamela ka ha
198_0660 okametseng a ka hokela taelong
198_0661 le ho mo qhobella majwe
198_0663 di na le ditsebo le
198_0665 di romeletswe ka thelefekse di
198_0666 ke maranran g a fepelang
198_0667 wa ho tokafatsa bo tlokotsebe
198_0669 le dintwa vmme e ne
198_0670 ho hlotjhwa ha ba di
198_0671 bo botlo le bo ka
198_0672 o tswile kotsi e mpe
198_0674 largest ethnic group
198_0676 roud ya wto re kgodisehile
198_0677 motjekong bashemane re ne re
198_0678 di boletseng e sa fokotse
199_0001 prime number theorem
199_0002 ba a re nyatsa ha
199_0003 thabisa difofane le dikgoba dihlokaboya
199_0004 ke ya html le ha
199_0005 e le mohatsa o na
199_0006 a botona marong a ntshuwang
199_0008 mebaraka e bulehileng kgwebisano ka
199_0010 ha a ka a se
199_0013 a lomolwe ka lelomolo la
199_0016 canadian prime minister
199_0019 ho ya ka molaotheo wa
199_0022 ho hlwekise khotone le h
199_0023 ka morero wa ho matlafatsa
199_0026 ho ya hlwekisa le ha
199_0027 leruo le utswitsweng jj le
199_0028 ke ya di heleng ho
199_0030 a sa kgotsofatse tleleime ya
199_0031 south china sea
199_0033 nyetsweng di ne di siile
199_0035 se sebapallwa ke moraparapa wa
199_0037 le matheriale oo mohiruwa a
199_0038 lethathama la tlhekatlheko le ho
199_0039 ba ka iketsetsa meusiamo wa
199_0041 mofuthu ha o ne o
199_0044 e shweleng e ne e
199_0045 aithunya ho ne ho sa
199_0047 a e ngotseng le ho
199_0049 phethelwe ha ho thetheswa bohadi
199_0053 state university alumni
199_0056 ke ne ke re na
199_0057 sa madibase mo nyeka hotloha
199_0058 re be re phehisane ka
199_0059 ke ke a re ke
199_0065 le amo kodisa a be
199_0068 supa matstasi a ho qala
199_0070 la ka ke dudu re
199_0071 market prices estimated
199_0073 ha mothendari a ka phumola
199_0077 e akaretsang le mokgahlelo wa
199_0078 major professional sports
199_0082 united nations standard minimum rules
199_0086 ka hofetisisa e ne e
199_0087 federal trade commission
199_0091 nuclear power plants
199_0092 cite web title
199_0093 ba ka di lebellang ho
199_0094 a se a kgahlilwe ke
199_0095 dipereng le ho beiseng ka
199_0097 dihlahiswa ho pakela le ho
199_0099 native american culture
199_0100 united states senate
199_0102 ha ke re ke se
199_0103 ha a se a rutehile
199_0105 e be kwakwa ya ho
199_0106 mo tswetseng o a re
199_0107 ma ntswe ka boiqapelo bo
199_0108 rupella le ho kwetlisa ho
199_0111 monyako o sa notlelwa ho
199_0114 e olato e ne e
199_0115 eo o e filweng potsong
199_0116 o se o hlwele matsatsa
199_0117 a ne a le manyenyane
199_0119 ho o besa ba polela
199_0120 sa leke ho mo nyokola
199_0121 mo kwala molomo ka mpama
199_0122 di sa di bolaye di
199_0123 north american plate
199_0124 je mabele a matjha masimong
199_0127 ya dikarolwana le value matices
199_0128 o e ise ho lekgathe
199_0129 e sa ratweng ha ke
199_0130 e ne e sa hlophiseha
199_0132 fapana ho tloha temeng e
199_0134 ho fediswa ha kgalemo ka
199_0136 o fodile a mo nwesa
199_0137 beatrice a be a le
199_0138 probability density function
199_0139 a ho hlalosetse le ka
199_0142 le ho sebeletsa bonngwe re
199_0145 york stock exchange
199_0147 dead link date
199_0148 ke e tsebisisa hantlehaholo le
199_0149 ho lokollwa ho itshetleheng ho
199_0153 ao bahlahlobi ba mabatowa ba
199_0155 inehele sepoleseng e se e
199_0157 ho mamella manyampetla ana a
199_0163 time magazine persons
199_0164 ha e ba le tshoso
199_0165 kotsing eo o amehileng ho
199_0166 ba batlileng ba mmolaya ka
199_0167 ho fihlelleha ho fihlelleha ho
199_0168 e nkuwang e fokoditswe e
199_0169 sitisitswe ke ho se be
199_0170 science fiction themes
199_0173 ke lebale ho tu ka
199_0175 ne a se a elelletswe
199_0177 e ka shadingwang ha ho
199_0187 ba bokana mmathabo a rwala
199_0190 ha e na tlhophisetso eo
199_0191 ho sosobana ha diaparo le
199_0192 western united states
199_0193 wa albert montasi sweni o
199_0195 sa foleng a holofatsang a
199_0196 tekanyo ya kgolo ya moruo
199_0202 phuputsong botjhutjhising le ho mamelweng
199_0203 nuclear power plant
199_0204 ya id ya morekisi le
199_0205 ha ya hatelletsweng a se
199_0206 b c d le e
199_0211 ba ngodise ho south african
199_0214 national league championship
199_0215 hohle ho ya ka merabe
199_0218 intelligent design proponents
199_0219 e totobatswang papatsong e ka
199_0220 tswetsweng ka ntle ho lenyalo
199_0223 ke sekgukguni a ne a
199_0225 new economic policy
199_0226 dikontrakeng ditshupamelatong ditjhekeng mangolong a
199_0228 ke rg hlohong o na
199_0229 ho hloho ya yuniti ya
199_0230 a se ke a ya
199_0231 e a ka ya mo
199_0232 tsebeng le ha di ne
199_0233 letsoho la ka le ruruhile
199_0234 ndoh le na le dilekane
199_0236 ditlhoka furu e sa silwang
199_0237 ya makgerike le maroma ya
199_0242 amino acid sequences
199_0245 tulo eo ho shebana le
199_0247 ya ditameneng shu ha di
199_0248 ya regulatory inpact assessment ria
199_0250 ya lepato le ho tloswa
199_0252 ba tshehang ba keketeka ha
199_0257 latin american countries
199_0259 ba le programa ya ho
199_0262 le moholwanae ho kuleng ha
199_0264 se re kopantse se fella
199_0265 ditokomane theepa e sebedisetswang ho
199_0269 kgothalleditsweng ho na le ho
199_0274 ke sa e hlalohanye ho
199_0283 king george
199_0285 sehang terata e meutlwa e
199_0286 ka mahlasedi detsebiso weposaete le
199_0289 le bareki le ho nehela
199_0291 parreira le dibapadi ka botsona
199_0292 baa ba ne ba kopanele
199_0293 sisa se hlahiswang ha ho
199_0295 dinyehelo kgwebong e ka ba
199_0296 interim prime minister
199_0301 palestinian national authority
199_0303 television shows set
199_0304 memo ya thekiso ya diabo
199_0305 ka ha o fetotswe melawana
199_0306 ha ho na le phapano
199_0308 laka la ka la nomoruweng
199_0310 ikgula kgohlanong ya ditabatabelo e
199_0312 kereiting ya borobong ha a
199_0313 ka ho ya ka diprovinse
199_0315 ha re mpeng re di
199_0316 ho phahamisa boemo ba profeshene
199_0317 le bohlweki moaparong le dipuong
199_0319 bophiritona ba re ho o
199_0320 ya a b le c
199_0321 keakgolwa le se le maketse
199_0323 ka ba ke re re
199_0325 eo ho ka ikgethelwang ho
199_0326 a ya thula lebota le
199_0327 thabohadi medidietsane le pitiki ya
199_0328 mehopolo le dintlha tse e
199_0329 kenngwe melaong e nseng e
199_0330 cambridge university press
199_0332 ha ho tluwa tabeng ya
199_0333 o senatla ha ke re
199_0334 ke ne ke sa swaswe
199_0335 kopela tshwarelo o se o
199_0336 new zealand english
199_0337 na le kgahla ho seipati
199_0339 ka ho shapuwa ke e
199_0340 ha mohatsaka a ne a
199_0341 san francisco giants
199_0342 le khroumu letsopa lehlabathe le
199_0343 e betsetswa ka fensetere a
199_0344 tangtang ya kgangwa ke lerole
199_0346 ne a sa nepa ke
199_0348 football league teams
199_0349 ha ho qellwane ke masiasiane
199_0350 sekepe sa ho tshwasa ditlhapi
199_0351 ha a ne a ya
199_0353 le ho adoptha ho itholla
199_0354 ka ho ya ka diafidaviti
199_0355 ke seikokotlelosethusangmotho ha a na
199_0357 a ja ha ke kgore
199_0358 ntho e ntenang ka ho
199_0360 ka na ba ha a
199_0361 ho se lekane ha dipuo
199_0362 se ka tshwarwang ka menwana
199_0363 o ne o re ke
199_0364 ya ho sutha mokgweng wa
199_0367 koduwa ya ho kgaoletswa a
199_0368 ba hohlola le ho ba
199_0369 vicky strydom o tshepisitse ho
199_0372 ao mohlahlobuwa a nehelaneng ka
199_0373 ba mo rahakaka molatoane o
199_0375 wa selalomehadi sa sekwenyamatjhaba ha
199_0376 hlalositsweng ho tjhata ya mahlatsipa
199_0378 la ho ya amerika le
199_0379 bannga ba mapolasi le basebeletsi
199_0380 feela leha ho le jwalo
199_0381 two umthetho wa se tjele
199_0382 sydney opera house
199_0383 ke ne ke sa lwane
199_0386 e hlahiswa ka bofokodi bo
199_0388 ha a ka ya lebollong
199_0389 homo phatsa o ileammeha ditlhakatse
199_0390 francis ford coppola
199_0391 ahlakola seretse se e silafaditseng
199_0394 jwaleka ha ho hlalosetswe mohato
199_0395 le nafci le tshwarahane le
199_0396 e buela sekgukgung dikgotjheletsaneng ha
199_0397 a lefuweng letloleng la mohlokomedi
199_0398 o a ntlhola ngwanaka ha
199_0399 ho robala ke ho fetoha
199_0400 e ka ba nyane hakae
199_0401 e bmosiuwa ke mohlahlami boreneng
199_0402 a ke ke a re
199_0403 ekare ke a iketsisa ha
199_0404 ha e ke e binwa
199_0407 microwave background radiation
199_0409 o sa tshwanelang ho e
199_0410 independent media diversity trust ha
199_0411 e sebetswa letsatsing leo e
199_0412 ntjha le diphetolo ngodisong e
199_0413 tlisitsweng ke bokoloniale aparteite le
199_0415 nkga a re phu ke
199_0416 science fiction fandom
199_0417 lossless data compression
199_0418 e etsetswang bafumanehi le dihlopha
199_0419 ba srsa ho ya ka
199_0420 be o itheola seriti ha
199_0421 ka mahahapa tlatlapo ya ditsha
199_0422 ha ke re o a
199_0423 le ho sireletsa lehlakore la
199_0424 ikamahanya le ba reretsweng ditaba
199_0425 founung botoloki ba founu bo
199_0426 di lekole kgafetsa re lokise
199_0427 le ho ba nolofaletsa ho
199_0428 ne a hloriswa kehlooho e
199_0430 se ntshitsweng ke laboratori e
199_0433 sa ho ba le ditlhahiso
199_0436 ho nnetefatsa lekunutu la molli
199_0437 ba dikapeso ho ba diporofeshenale
199_0438 ha e betsetswa ka fensetere
199_0439 ho etela tulo eo ho
199_0440 be e bonolo e napahetseng
199_0441 ke ya sa ba hlalosetseng
199_0442 ba se ba tshwasitse tlhapi
199_0446 baokajeno e sengele dikgutsanakgudu ke
199_0447 ho akaretsa le ho kgema
199_0448 gold medal recipients
199_0449 numeric character references
199_0450 re roba dipelo he moradia
199_0453 eleng pharela le ha ho
199_0454 molaong melawaneng le molaong o
199_0455 tlelapo ya lantjhe b o
199_0456 tjheseho ya ho ka di
199_0457 a ka kgaotsa ho tsuba
199_0458 dipatlisisong a ka bitsa dipaki
199_0459 warring states period
199_0460 ne a tsebahala ka ditlolo
199_0461 di utlwang di na le
199_0462 a ananelwang ke ldab le
199_0463 mmamesa poeyana re senotswe re
199_0465 ha re e lemeng re
199_0466 ke ne ke sa kgolwe
199_0467 a phakisa ho o nyahlatsa
199_0469 le utlwisisana a ka le
199_0471 lebitla ee ho ne ho
199_0473 national football league
199_0474 le ya ho ya ho
199_0475 ne a ka feresa le
199_0477 shebuwang le nomoro ya ya
199_0483 le ka ngamoha la mo
199_0484 ralehlatsa o ne a tahilwe
199_0485 le ha e le mariha
199_0487 american film institute
199_0488 charles sanders peirce
199_0489 ho utsuwa mabenkeleng a ka
199_0490 feleheditsweng kemoya obatang le ho
199_0491 ho qoswa ha mokhomishenara wa
199_0492 president lyndon b
199_0493 nyalle thollo bafokeng ba mo
199_0494 banna anthe perekisi e monate
199_0495 fixed point theorem
199_0497 ao aneng a ka ba
199_0498 ka meferefere ha ho se
199_0499 wa sejapane ho ne ho
199_0500 los angeles times
199_0501 monene ha le ne le
199_0502 sa kgahlwe ke morwetsana o
199_0504 international criminal tribunal
199_0505 qobe le ho nena dinyehelo
199_0506 mafose dibini tsekgolodi ne di
199_0510 ba metseng eo eseng ya
199_0511 hwa jewa dikuku le nama
199_0512 bo kgile ka dikgopo le
199_0516 hello world program
199_0517 a re botsietsi ba inehele
199_0519 di sa tsitsitse a re
199_0520 la nkgwebetha la re ke
199_0523 helang ha e sa le
199_0524 ne e le ya ho
199_0526 kgoho e tshwerwe ke mokoeyo
199_0528 makubetso le ho ja ho
199_0530 eo ya tedu di putswa
199_0533 ha senyeha ka holong ya
199_0535 matatiele ha a ne a
199_0536 ke ne ke hloname ke
199_0539 occupied cypriot area
199_0540 digital equipment corporation
199_0541 iran iraq war
199_0543 ha ho le hongata ho
199_0544 o ne a sa re
199_0545 le e governance e learning
199_0546 bo sa amoheleheng le ho
199_0549 ya ka e lokolohang ke
199_0550 o hlekefetswa ka ho shatjwa
199_0553 be le se le mo
199_0554 mmata le sa tshelweng ke
199_0555 ba ka susumetswa ho ya
199_0556 high school alumni
199_0558 ho halofo ya didika lemetseng
199_0559 e ke ke ya inkelwaka
199_0560 mo tlatsela ha e le
199_0561 wa casalis e ne e
199_0562 science fiction hall
199_0563 dikotsing hotshwanetse baikenye molatong le
199_0564 national football team
199_0565 mosima ha o tlale ke
199_0567 thelevesheneng le seyalemoyeng mananeoa behelwa
199_0568 ho re ha e le
199_0569 ngwananyana waseithati ya tshepileng ho
199_0570 e totobe tseng sebopehong sa
199_0571 ka ho o tjodietsa ka
199_0573 ba monyetleng wa ho hahlamelwa
200_0001 ke tshwanelwang ho o hlwa
200_0002 na o a e phehisa
200_0004 ya ho thonngwa le d
200_0006 states supreme court
200_0012 aaraba ee ke ne ke
200_0014 to information act ke ho
200_0016 lebisang popong ya tlhalohanyo e
200_0021 e nyarosang a be a
200_0023 new prime minister
200_0025 bo hodimohadi ba boprofeshenale nonoso
200_0026 eitse ha ke re ke
200_0027 free trade area
200_0031 hlophisang dimmapa le mahlasedinyana a
200_0033 popular tourist destination
200_0034 humid subtropical climate
200_0035 le vitamini e ka ho
200_0042 native american languages
200_0050 le hlomphehileng mohatsaleqwetha o nyametse
200_0051 e se e itshetjha e
200_0057 ho lothanwa ba lothuwang ie
200_0059 relatively small number
200_0062 ba seafrika bo hlomptjhwe o
200_0068 united states presidential
200_0073 late middle ages
200_0082 a hwehla ka letsoho ho
200_0083 ispia monnafeela a kwetelwe ke
200_0088 ho inkela diqeto ha ba
200_0094 ha ho na le menyenyetsi
200_0101 new york mets
200_0103 papua new guinea
200_0106 dar es salaam
200_0111 ya boitjhoriso e ne e
200_0131 achievement award winners
200_0133 a lefshwa ho ya ka
200_0135 a tsebiswe ka boikemisetso ba
200_0138 ka kakaretso le c ho
200_0139 american sign language
200_0140 ka ha ho boletswe le
200_0141 ha eo a e ya
200_0143 sa ye ngakeng o e
200_0155 guano islands act
200_0157 tshwela tb e ipatileng e
200_0161 e a ko hlo ntjwetse
200_0163 a se a e na
200_0164 united states district
200_0165 wa kelly o ne o
200_0167 roman catholic priests
200_0169 dikgoho botsikwane bo ba qete
200_0174 queen elizabeth
200_0177 ya homeland ya qwaqwa le
200_0179 le ba senyehetsweng ke tsonad
200_0187 ho re ha aphela o
200_0193 se inong ho bolellana makunutu
200_0202 e kentse leoto ka kgamelong
200_0203 re ho ntatate ba ye
200_0204 e kengwe setempe ke rejistra
200_0205 president richard nixon
200_0212 ne a tshohilehaholo a sa
200_0216 tadi o tsejwa ka mereto
200_0217 american revolutionary war
200_0218 sa mahwelereng se ahilweng katoropong
200_0221 ya sejwalejwale e nkehang ha
200_0226 ya diindaseteri e beheletse ka
200_0227 ya sethathong ho ka ba
200_0228 king philip
200_0230 itshepile noha ha e ntshwe
200_0233 ho tsetelwa moruong le dikarolwaneng
200_0239 di fetolelwe ke mofetoledi ya
200_0240 ahile london le moahlodi arthur
200_0242 ne a hlabile dioka e
200_0244 verify source date
200_0254 mehlengwa ka seipheo sa ho
200_0255 wa monnamoholo o shapuwe ho
200_0256 sa kgahlehe e le diqhwala
200_0259 academy award nominations
200_0260 day saint movement
200_0261 a tsielehile e le ka
200_0264 ne a se a roballetse
200_0265 ya eketseha ka ho bonahalang
200_0266 professional sports teams
200_0273 kgutlong sa mmila o kenang
200_0275 wa kgwedi le kgwedi o
200_0276 ka be o sa ka
200_0278 okosejene o ke ke wa
200_0280 lokolla le ho re ho
200_0283 tshimolohong o tsebile e sa
200_0284 se kwetsweng ho ya ho
200_0285 los angeles area
200_0286 se lebelletsweng k h r
200_0300 le se tshohane le re
200_0301 ka ho sisinyeha ho hosesane
200_0305 le ho tsetela le meruo
200_0306 le diqhwaha le dipudumo ho
200_0308 ne e opa a nyokgoloha
200_0309 ke advocate le ha ho
200_0312 e tla be e le
200_0313 le ho bohehang ho sa
200_0316 le he e ye e
200_0318 chicago white sox
200_0320 e kathoko ho tlhopho e
200_0324 le ho mo qhobella majwe
200_0329 ke maranran g a fepelang
200_0331 british overseas territory
200_0332 le dintwa vmme e ne
200_0334 bo botlo le bo ka
200_0337 largest ethnic group
200_0339 roud ya wto re kgodisehile
200_0340 motjekong bashemane re ne re
200_0343 di anti retroviral le ya
200_0348 nkgetheng la kamohelo ya ho
200_0349 ha ho na ho ba
200_0355 lelapeng ho ka ba le
200_0356 molamu o kopane le tshepe
200_0363 le talente le ho ba
200_0365 ke re ho ya ka
200_0371 ke ba arolelanametsi a yonale
200_0374 ho ya ka mosebettsi wa
200_0377 screen actors guild
200_0381 ludwig von mises
200_0384 mohloki ya kgesehang kgutsana le
200_0385 a le tipatipa ho ya
200_0386 eo o sa e utlwisiseng
200_0387 european union le ahile diphaposi
200_0389 supreme court ruled
200_0395 samina o imme ya nyarosa
200_0397 ho ba le rejistara e
200_0402 ya projekte le kananelong e
200_0407 science fiction convention
200_0409 be ba se ba ho
200_0411 american football conference
200_0412 ba le pin ya ho
200_0415 burundi comoros sudan haolo ho
200_0418 gibbs free energy
200_0422 ka sms sms benefit lookup
200_0427 late eighteenth century
200_0432 madison square garden
200_0433 ho fopha ho sututsa ho
200_0438 e yeng e be ya
200_0442 basebetsimmohomemorantamo ka tlhokomediso ya ho
200_0443 saenneng wili ya sethato ha
200_0444 ka ke ne ke le
200_0446 tlamehang ho ho ya ka
200_0451 ka ho ya ka ho
200_0452 ha o na thaere eo
200_0453 re hoetsahetse kgoba e se
200_0454 le ho phutho llwa ka
200_0455 e lwanela ho ya ho
200_0456 hela ke itlamela ke le
200_0457 english civil war
200_0460 e le o unneng ka
200_0463 civil class
200_0464 mesi mehudi dikgase le diphofudi
200_0466 watshomong ha a ne a
200_0468 leru le lefubedu t w
200_0469 chief executive officer
200_0472 wa kabo ya mangolo nqf
200_0473 le hamohlomong o ne o
200_0474 e mehlano ya dilotho ho
200_0475 seturupu se se kgubedu botlolwana
200_0478 se mo ise yunivesithing o
200_0480 australian air force
200_0481 western roman empire
200_0482 o re ho a be
200_0485 thupa e kojwa e sa
200_0491 ne o re o a
200_0494 ho ya ka kutlwisiso ya
200_0495 poho ya mokgerane e ka
200_0497 cite press release
200_0504 unrestricted submarine warfare
200_0509 ka ha ho ne ho
200_0510 e ho na le methwaela
200_0513 pope pius
200_0516 ho ithuteng le ho rutweng
200_0517 le adv j de lange
200_0518 ya remittance advice ya nothisi
200_0519 american football league
200_0522 wolf whistled le ho betwa
200_0524 mokganni eo o ne a
200_0525 hose phahle makunutu abonaj k
200_0527 e tshwarellang e kgodisang le
200_0528 inspector of mines ciom ya
200_0531 re di etse mohatla kgwiti
200_0532 lekgethi o be o le
200_0533 re ha o a thaba
200_0534 enngwe a le akgele ka
200_0535 na ba e rutilwe ke
200_0538 hiruwa ha ka potefoliong ya
200_0539 a potlakile le ha re
200_0541 le ho tlanya typing o
200_0542 tsejwalo a ba a re
200_0543 tiehiso ya ho phethela dikarolo
200_0545 ya mmofu e kgonya mokgwabong
200_0547 mixed martial arts
200_0550 camp david accords
200_0552 ya lejwe la ntatao eo
200_0553 olato e ne e le
200_0554 sepheyo ke ho nyalanya boitsebelo
200_0555 e ya hatiswa e saenwe
200_0556 ba qelelwa dinthong ha ba
200_0557 union member economies
200_0558 ya a a nkellang hloohong
200_0559 nthe hee ka ka ka
200_0560 di so ka di rekiswa
200_0561 ka ha re se re
200_0562 wa thoteng tlhophollo le tlhaloso
200_0564 ka ha ho hlomamisitswe ke
200_0567 ne bo hlomola ho le
200_0569 a sa kgarumemmakarabelo motsotsong oo
200_0570 le mmamoruti ya mmoledi ke
200_0572 ka ho ya moketjaneng ono
200_0575 ya tsitsinngwa ke diheshana bomafisa
200_0577 na le boipelaetso bo isteng
200_0581 ho bahlokomedi le pontshahatso ya
200_0582 di ka qhalakanngwa le di
200_0587 kgele a tsoha a tlola
200_0589 eo ho ne ho sa
200_0590 ho bapiswa le ho a
200_0593 sa le ka madungwadungwa ke
200_0595 e dumelletswe ho ka eketsa
201_0002 ka ho ya ka tshitshinyo
201_0005 phomolo le ka tjhentjhana le
201_0006 ha ho so etsuwe o
201_0008 cardiovascular disease deaths
201_0011 le ho itebala ho re
201_0012 khanselara ya woto e ka
201_0013 e nyolotswe ka diphesente tseleshome
201_0016 international red cross
201_0022 a tlwaelehileng a dipuisano ka
201_0023 a mo tlweba ho ya
201_0024 exclusive economic zone
201_0027 v ka ho re le
201_0029 e sa potoloheng e utlwisisehang
201_0031 le ho e bapadisa ka
201_0036 south american countries
201_0037 hwa be ho se ho
201_0038 tankana se lokisitsweng ka ho
201_0039 o sa tshwasetseng ho ja
201_0042 le ha ba ka mmitsa
201_0043 ngolle posekarete o mo thoholetse
201_0046 ho bentsha tapeiti o a
201_0047 ho hlaloswang le ho buisanwa
201_0049 belaellwang a utswitse diruuwa jj
201_0050 elections took place
201_0052 a le abilweng ke palamente
201_0054 ba ho ngodisa bokudi ba
201_0055 a nya matsete a ba
201_0057 batsamaisi ba mananeo le dibohodi
201_0062 hoba le tshware ditherisano le
201_0064 ke ho qhwala ho mo
201_0065 na le diotlammele le ditlheferetsi
201_0066 o ithutile ho le ho
201_0068 le g thuo le ditabatabelo
201_0069 oo e seng wa phahello
201_0070 ba ne ba tlwahetse ho
201_0071 le ho hasanngwa ha dikhondomo
201_0072 mohlomong e be e le
201_0073 ya mmasepala le dikwere dipaka
201_0074 na ha ke re ho
201_0075 ha re ka ra e
201_0076 morabaraba thellisane phupekalefe di ne
201_0077 mekgele e wetse ka mahlong
201_0078 ho eo o itlwanang le
201_0081 e se e qhalane e
201_0082 track speed skating
201_0083 eastern bloc countries
201_0084 animated television series
201_0085 ke boriki eo ka bokgutswanyane
201_0086 ha o se o ikentse
201_0087 fact date january
201_0088 ba sa ikamahanyeng le bcea
201_0089 lepetjo ke mobolelo o mokgutshwane
201_0092 eastern orthodox church
201_0093 o se ke wa nkuka
201_0094 e kanakana ya tabahadi e
201_0095 e ba o pepeta senotlolo
201_0098 ya meputso eo ho ka
201_0099 kgweding ya phato mantsiboya ke
201_0100 matle haholoholo ha ho shejwa
201_0101 a e sebedisitseng phehisanong e
201_0102 itahle a so ka a
201_0103 ba ke re re qhalle
201_0105 le terata e hoketsweng makapanyana
201_0107 nyontse a tenehile a sa
201_0110 ha di tlo phatlalatswa ho
201_0111 ne di mphapanelana di mpakela
201_0113 ne di hlwekile di sa
201_0115 bohlahlobi ba semolao ba ditjhankane
201_0116 kgannela boitshwarong bo ka tlisang
201_0117 mrm e ne e le
201_0118 ozone layer protection
201_0119 fact date march
201_0121 e bapatsang le e fepelang
201_0122 e ne e ipoqa seretseng
201_0124 e ne e le qohollehile
201_0125 central processing unit
201_0127 ka ho ya ka mehato
201_0128 ngola le ho nehelana ka
201_0129 phedisano a shebane le ho
201_0130 tennweng ke kedibone e mesesane
201_0131 ne e le ya v
201_0133 e metle eo a e
201_0136 ha a sa a qapodisa
201_0138 o se o ikentse kgodumodumo
201_0139 e ne e mo rute
201_0140 bophirima boloi ba mampolane bo
201_0141 le ne le kgaphatseha ho
201_0144 mantsopa ha a sa mo
201_0145 ba e tobileng mehatong ya
201_0146 re sa lwana ha e
201_0147 high school students
201_0148 re ke ke ra ikwala
201_0149 united states environmental
201_0150 military coup
201_0152 be di se di sutelwa
201_0153 afe ao ho ikemiseditsweng ho
201_0154 e le afeng moikopedi a
201_0155 e se e le dithungthung
201_0157 dihela dikgala molatong ono wa
201_0159 boshodu bo ne bo le
201_0160 tshwantshiso ee na o ka
201_0161 hamohau a mo shebisisa a
201_0162 di a behwa ka tate
201_0163 la ho ya beleha le
201_0165 political parties established
201_0166 o be o sulafallwa ke
201_0167 e ne e ka ratwa
201_0168 baruti ba ne ba le
201_0169 tobana le ho kenyatshebetsong o
201_0170 kelly o ne o na
201_0171 lehano e sa kgoneheng ha
201_0175 tlhahisoleseding yohle eo o re
201_0176 org wiki wikipedia
201_0177 kentswe bonyane mohlala o le
201_0178 toropong e ne e le
201_0179 ha di ke di be
201_0180 kokosile selepe a loloma ke
201_0181 tsalefatshe ke majoro eo ha
201_0182 eo e ne e jellwa
201_0183 ka baka la ho kula
201_0184 maintains diplomatic relations
201_0185 french revolutionary wars
201_0186 diwoto di ka ba le
201_0187 science fiction films
201_0189 be o le modudi wa
201_0192 registrar of animal improvement e
201_0193 metal musical groups
201_0196 a ka na a phahamiswa
201_0199 ke o antsha phooko ha
201_0200 na o lekotse alaenemente le
201_0202 e a thibelwa ka ho
201_0203 a ho na le sekgeo
201_0204 ya mabidi o ka se
201_0205 ne e ka ratwa ke
201_0207 o ke ke wa keketeha
201_0211 sa thabelwe e be motlotlohadi
201_0212 ke ya thabelang ho rongwa
201_0213 ya ho ipuella ho eo
201_0214 ha se re mmopi o
201_0215 a diranta ke ho re
201_0220 mokgahlelo wa thuto le thupello
201_0222 lebeletsweng tshebeletsong ka ho ikgetha
201_0223 ho ya ka tokodiso ya
201_0225 ngaka e laolang meriana ya
201_0227 ke tshwanelwang ho o hlwa
201_0229 ha a se a hodile
201_0234 di ka etsuwang di le
201_0237 ke moikgohomosi ya sa tsotelleng
201_0238 aaraba ee ke ne ke
201_0239 e ke be e e
201_0240 to information act ke ho
201_0242 lebisang popong ya tlhalohanyo e
201_0243 ho itekola le ho itshupa
201_0244 o ntlela ka kedibitlahadi ya
201_0246 bo tlasetlase bo ikemiseditse ho
201_0248 dihetse tekete he mohaeso o
201_0249 new prime minister
201_0251 bo hodimohadi ba boprofeshenale nonoso
201_0259 popular tourist destination
201_0260 humid subtropical climate
201_0264 le mahlonoko motseng wa naledi
201_0266 ho tsebisa gems mabapi le
201_0267 o qadile ka mathaithai a
201_0269 ho kwalwa ho sa hlokeheng
201_0272 leyena o ne a se
201_0274 ditlhabela ha o mpona ke
201_0276 le hlomphehileng mohatsaleqwetha o nyametse
201_0277 e se e itshetjha e
201_0281 kabong ya ditekanyetso le ditaelong
201_0282 mr t a ba a
201_0283 ho lothanwa ba lothuwang ie
201_0284 ha e le ho totoba
201_0285 relatively small number
201_0286 le mepeletotshwano mahlalosonngwe malatodi le
201_0287 ho be le ho se
201_0288 ba seafrika bo hlomptjhwe o
201_0290 boitsebiso ho thibela pepeso e
201_0291 karohano ya ho ya ka
201_0292 ha e bonahale ntlafalong ya
201_0293 wa bodulasetulo ba sadc ho
201_0294 united states presidential
201_0295 kgwebo e ka thoko ho
201_0297 ya boipiletso ba ka hare
201_0298 ke haho se ho ropoha
201_0299 late middle ages
201_0300 diphoso le ho e ntlafatsa
201_0301 mehala ya ka malapeng le
201_0303 le molaodikakaretso wa ka ho
201_0304 ha e ke be e
201_0309 ispia monnafeela a kwetelwe ke
201_0313 e mebe eo e ka
201_0314 ho inkela diqeto ha ba
201_0315 ekasitana le marangrang a dikgokahano
201_0317 josip broz tito
201_0318 a nkehile mathakeng ao ke
201_0324 e hopotseng e sa wele
201_0325 ba ne ba sebaqaleletse ho
201_0327 new york mets
201_0329 papua new guinea
201_0331 potlolomente matsohonga samadula anto epelamoomofatshe
201_0332 dar es salaam
201_0333 e ne e se moitlami
201_0335 a na le phehello ya
201_0336 sa nwajwala tlhase ya pososelo
201_0337 ya boitjhoriso e ne e
201_0340 eo a e jetseng ha
201_0345 sa re hlahele re bohlale
201_0346 e tshabe ho ba tlohedisa
201_0348 ho sebedisetswa ho lekanyetsa diphetho
201_0349 ho ba le boitemohelo ditsong
201_0350 le diphetoho ho ya ka
201_0351 tjheka moriana thoteng ha a
201_0353 eo moradiae a sa lokelengho
201_0354 ha ho kgoneho e ka
201_0356 bothile dinonyana di ipatile dirobeng
201_0357 achievement award winners
201_0358 ke lebohile ho menahane ka
201_0359 a lefshwa ho ya ka
201_0361 a tsebiswe ka boikemisetso ba
201_0363 ne a se leqhoko a
201_0364 ka kakaretso le c ho
201_0365 american sign language
201_0366 ka ha ho boletswe le
201_0368 ba tshepahalang ba na le
201_0370 phatlalatso ya ho lokollwa ditlamong
201_0373 o ke ke be wa
201_0376 e sa le ka madungwadungwana
201_0378 ya ho tsamaela ho lebeng
201_0379 a ka ba a re
201_0380 a ne a kudiswa ka
201_0381 guano islands act
201_0382 a tsebise b a mehang
201_0383 tshwela tb e ipatileng e
201_0384 ya sepikara e ka ba
201_0385 tlung eo le e kopanetsweng
201_0386 ba saps criminal record centre
201_0387 e a ko hlo ntjwetse
201_0390 united states district
201_0391 wa kelly o ne o
201_0394 afidavite e arabang e kentsweng
201_0395 dikgoho botsikwane bo ba qete
201_0396 le re kgethollang le re
201_0397 ha di a behwa ka
201_0398 le ke bothabang o a
201_0399 ya bonna le bosadi ho
201_0400 queen elizabeth
201_0401 emelang le ho di fa
201_0403 ya homeland ya qwaqwa le
201_0404 lekoteng ho tu o balabala
201_0406 ba re morwa o bohlile
201_0407 ha a na le kgahleho
201_0408 otukang malakabe a maholo a
201_0409 ke ho tlodiswa kgathi ka
201_0410 lekgotla la diphuputso la temo
201_0414 asian nations asean
201_0416 be e se e le
201_0419 se inong ho bolellana makunutu
201_0420 o se o e lebetse
201_0421 a mo atamela ba buabua
201_0423 ba se ba tsamaile ho
201_0424 ba itokisetsa ho ya moketeng
201_0429 re ho ntatate ba ye
201_0430 e kengwe setempe ke rejistra
201_0431 president richard nixon
201_0432 ke ho re ba banyane
201_0433 le eya matubatsana ke a
201_0434 ke ya banhlankana le methepa
201_0435 o nkopile ke ne ke
201_0437 ba sa mamele le ho
201_0438 ne a tshohilehaholo a sa
201_0439 ho iphaphatha le lebopo la
201_0442 tadi o tsejwa ka mereto
201_0443 american revolutionary war
201_0444 sa mahwelereng se ahilweng katoropong
201_0445 ne a sa utlwisise a
201_0446 he ha re mo adimeng
201_0449 ka kamoreng ke ntano robatsa
201_0451 ha a ka a fetohela
201_0452 ya diindaseteri e beheletse ka
201_0453 ya sethathong ho ka ba
201_0454 king philip
201_0456 itshepile noha ha e ntshwe
201_0457 mawala a ho ka di
201_0459 ho tsetelwa moruong le dikarolwaneng
201_0460 ba o hemang ha o
201_0461 falle ha re falle ke
201_0463 eo a nnileng a e
201_0464 e tjhaelwe monwang ke ba
201_0465 di fetolelwe ke mofetoledi ya
201_0466 ahile london le moahlodi arthur
201_0467 ho ikopanya le bafepedi ho
201_0470 verify source date
201_0474 le ho phehisana le mafatshe
201_0475 nkong ke molebedi eo ho
201_0476 ho ya ka bolekodi ba
201_0479 bo ne bo sa amohelehe
201_0481 wa monnamoholo o shapuwe ho
201_0482 sa kgahlehe e le diqhwala
201_0483 a belaela ha atshwanetse ho
201_0484 ka pakana ya sakarete le
201_0485 academy award nominations
201_0486 day saint movement
201_0491 ya eketseha ka ho bonahalang
201_0492 professional sports teams
201_0494 mekgatlo eo eseng ya mmuso
201_0495 ho se tsotellwe ho se
201_0497 so fele tlhophollo ya ho
201_0502 ka be o sa ka
201_0507 di se o tshwenye o
201_0508 le kgaphatseha ho setloholo sa
201_0509 tshimolohong o tsebile e sa
201_0510 se kwetsweng ho ya ho
201_0511 los angeles area
201_0512 se lebelletsweng k h r
201_0521 ba ne na ye ba
201_0526 le se tshohane le re
201_0527 ka ho sisinyeha ho hosesane
201_0530 mohwehadi ha di thabiswe ke
201_0532 le diqhwaha le dipudumo ho
201_0535 ke advocate le ha ho
201_0537 le ho lwantshana le botlokotsebe
201_0539 le ho bohehang ho sa
201_0540 o ne a boetseatshwerwe ke
201_0541 ne a tadimeha a se
201_0542 le he e ye e
201_0543 o re bopileng ke a
201_0544 chicago white sox
201_0545 ka letsholo la ho baballa
201_0548 alwana ya kgumamela ka ha
201_0551 booki di lefelletswe kemosuwehlooho tsholo
201_0554 di romeletswe ka thelefekse di
201_0555 ke maranran g a fepelang
201_0556 wa ho tokafatsa bo tlokotsebe
201_0557 british overseas territory
201_0558 le dintwa vmme e ne
201_0561 o tswile kotsi e mpe
201_0562 dikgaolo le ho re hlahisetsa
201_0563 largest ethnic group
201_0564 phemiti ya ho kganna ya
201_0565 roud ya wto re kgodisehile
201_0569 di anti retroviral le ya
201_0570 kgutle a tulatula moriana oo
201_0571 re e hlaolele re sietswe
201_0577 se ne se hlabehile habohloko
201_0579 le bonase ya kheshe eo
201_0585 badan pusat statistik
201_0590 re phahamisitswe ke ho kgwathwa
201_0591 ke re ho ya ka
201_0596 kgothaletso ya boikgwantlello le ho
201_0597 ke ba arolelanametsi a yonale
201_0600 ho ya ka mosebettsi wa
201_0602 universal postal union
201_0603 white blood cells
201_0605 kgetho ya mantswe e bontshang
201_0606 e ke ke ya transferwa
201_0607 dithotobolong o tshabelefatshe thulare ke
201_0608 ha e fapohe popehong e
201_0609 e kgonehang ya tefiso ya
201_0610 le ka rarollang tshubuhlellano e
201_0612 o sa rateng le ha
201_0616 ha tehpa e ka rekiswang
201_0617 bophirima ka botjhabela ho ho
201_0618 swabile nko ho feta molomo
201_0620 random access memory
201_0621 re balella dikhamphani dikhophoreishene bommasepala
201_0622 leonardo da vinci
201_0624 ha e nkwe e le
201_0625 dithuso le ho hlahisa dipalopalo
201_0627 nke ke ka e emela
201_0628 nfl championship game
201_0629 ka itahlelang lemeneng la ditau
201_0631 a re photse ha a
201_0632 sebete o sa natse le
201_0633 babedi bao re ka iteanyang
201_0635 ya leon ho ne ho
202_0001 ya mo sikarong le ho
202_0002 ba ka ha ke sa
202_0003 ya ho kgethammabotle wa mautse
202_0004 ka a sekgopisehe o se
202_0006 community based natural resource management
202_0007 e ntenang ka ho fetisisa
202_0008 second vatican council
202_0009 ke toro eo ke ikemiseditseng
202_0010 orange free state
202_0012 pheleu v o ne a
202_0014 eo ho ka kgelohwang ho
202_0017 le ha di sa utlwisisehe
202_0018 british royal navy
202_0019 ha o ka tlohella ho
202_0022 e ka letlwepe la masumuathebotsho
202_0024 ha bo yo ha ho
202_0025 bo weso ka ho ja
202_0026 e se bolokehe bahahlaodi bamose
202_0028 second boer war
202_0031 ne di mathile mantswenga hlahlalebajwadi
202_0033 le ditlontlollo re ka phelahamonate
202_0034 momahano cohesion ketso ya ho
202_0037 mosi o ka kubellang ho
202_0039 a kgolwao potile le ha
202_0044 king james version
202_0045 ha ho na le ho
202_0051 ba ratang papadi ya bolo
202_0054 following table shows
202_0059 ha ho se ho ngangisanwe
202_0061 o ke ke wa tshwengwa
202_0062 lomahanya meno e le ka
202_0064 ke re re le bolelletse
202_0067 ho ya ka tshisinyo ho
202_0070 coptic orthodox church
202_0072 vene ho ne ho le
202_0073 e momohaneng e lebisang tlhalohanyong
202_0075 bo a raroloha ho fihlwa
202_0080 thato ya tshwene terene e
202_0083 designated service provider dsp dsp
202_0085 o ne a jelwe ke
202_0086 o ne a tlohile matatilele
202_0087 b na o ne o
202_0088 ne ke thothomela ke tshohile
202_0093 le dierekisi cauliflower le broccoli
202_0096 ho thibana ha methapo ya
202_0100 ho thwenge atile le ho
202_0111 ya akademiki ya learnership ka
202_0112 sa dibasari ka ho ya
202_0114 re le ha ho le
202_0116 le kgotsofalo ya mosebeletsuwa le
202_0119 a jelle kgwebeleng le ho
202_0123 e sebedisitsweng metareng wa dikarata
202_0127 ka mokgowa oo ntlafalo e
202_0129 o ne a ka ya
202_0130 unesco world heritage
202_0131 ya dipalekgutshwe ke ha ba
202_0132 utlwe ntlhakemo ya ka tabeng
202_0133 new york jets
202_0135 middle high german
202_0139 ke ho ikwetlisa le ho
202_0141 ho re ha o a
202_0144 ha o ne o ka
202_0145 ha o nthate o mpa
202_0146 ho diphaka ho dihlathe difubeng
202_0147 united states national
202_0148 pikoko ka moaparo o lahlilemaharaswanyana
202_0150 le baetapele a re qaleng
202_0151 e o lemosa ka ditleleime
202_0156 mies van der
202_0158 h o amana le e
202_0159 motsaneng wa menkgwaneng ho se
202_0160 supang qotso di a bulwa
202_0162 ya makgiseterata ya kagisohape le
202_0163 nkimisitsenghobane a ne a re
202_0165 ee o ka re mopheti
202_0166 diofisi a se kea hlopheha
202_0169 ho ba thodisa se itsheleng
202_0170 british north america
202_0173 a larile a latetse ba
202_0175 yuraniamo le thoriamo boteng ba
202_0176 ho sebeditsweng lehlaso o be
202_0178 tjhakatsa ka mahahapa ke motsofehadi
202_0179 le ba sa ingodisetseng dikgetho
202_0184 lohothwang serapeng sa a a
202_0185 a khompeuta a word processing
202_0186 ho ya ka ho kalwa
202_0187 ke ha ho tjhang ho
202_0189 ba meharo le ho ikgohomosa
202_0190 ha ke a ikemisetsa ho
202_0191 o ne a hafa ka
202_0192 bonakganyapa a se a le
202_0194 ke e kgahlehang tjhabeng se
202_0196 ka ho sotlwa ka ho
202_0198 pope urban
202_0200 se le fatshemoo sa mo
202_0201 ke lehlanya a se ke
202_0202 ya emellwang ka sepolo ho
202_0203 ba ne ba ka nyopisa
202_0211 ya manyesemane le phehisano ya
202_0212 ye a re ha ho
202_0214 ho se tsube ke e
202_0217 ba vidiyo le ho tsekiswa
202_0218 buella setlokotsebe see sa moshanyana
202_0219 phamola ditsuonyana a sa mmotse
202_0220 ho se tsejiswe lebiso la
202_0221 binary search tree
202_0223 prime minister tony
202_0225 african unity oau
202_0228 ba ha a na diprotheine
202_0232 mo qwaya a ba a
202_0233 eo a mo ratileng dilemolemo
202_0234 dac doj pansalb saqa le
202_0236 o le makaqabetsing ha ho
202_0237 re di lwanetseng ka ho
202_0242 a ko totobatse ho ya
202_0245 ya silikha le silikhosis ke
202_0249 a le natala tlhware e
202_0250 molefi o ke o mphe
202_0251 le kananelo ya leksikhokrafi le
202_0252 ngwahashome ngwahakgolo bapabi le ho
202_0255 jewish theological seminary
202_0260 se ho kgwaphohile ho potlakela
202_0261 ruri e ne e le
202_0262 lekgotleng le buletsweng bohle la
202_0263 ba ditekesi ha ba kenye
202_0265 ho iketsetsa kuno le diprojeke
202_0269 kgosto nkabe ke re llang
202_0273 ka ho se je hnatle
202_0276 mohobelo a b kgoro ke
202_0278 a ho ba bothateng bo
202_0279 ha a itlhompholle ka ho
202_0280 ya ntsotellang e le ka
202_0281 sa roleleyathunya o ne o
202_0282 ke letlaka haufinyane ho fetafeta
202_0284 sa rutehangbafola difemeng ba rutehilengba
202_0286 carl friedrich gauss
202_0287 o phaphame ha o le
202_0288 melbourne football club
202_0290 o o fetisetsapelebakengsatsatlhahlobisoyammele patholoji thekenolojiyabongaka
202_0291 o molokoloko ha ho diratswana
202_0294 o motsumi wa meya ya
202_0295 ya phumantsho ya matlo ya
202_0297 ba le pherekano eo ho
202_0298 ho ke ho kgutlwa re
202_0299 motjodi o tono se sephatswa
202_0300 e fosahetseng e na le
202_0302 le ne le hanella mmetsong
202_0303 short story writers
202_0304 ba a ka ba o
202_0308 lifetime achievement award
202_0309 international space station
202_0310 tshwanelehileng di amohelwe ke registration
202_0311 ba ramautla ba re etsisang
202_0312 polasing le menontsha e na
202_0316 northern mariana islands
202_0317 judase ha a ne a
202_0318 ne e le phephetso e
202_0319 saint john river
202_0321 ditsela le ditlwaelo ho ya
202_0322 mmatoko o ne a se
202_0323 ya ba lai lai thu
202_0324 traditional chinese medicine
202_0325 fetolwang ka ho ya ka
202_0327 american film directors
202_0328 ya ka e a thulama
202_0329 se ke la ntlhobaetsa ke
202_0332 states national film
202_0333 be ho sa ba le
202_0335 re iqeke emoholo esere ra
202_0336 palo eo o e kopang
202_0337 international phonetic alphabet
202_0338 ba phetelana ditshomo ho itlosa
202_0340 european economic community
202_0342 e otlolohileng le ha e
202_0343 thaka a be a se
202_0345 tshebetso e bolokehileng ya ralewa
202_0347 ba lekganyane ho sa le
202_0348 le ha ho le jwalo
202_0350 a tshwanetswe ke ho ka
202_0352 matshwenyeho ao ba teaneng le
202_0360 nkgwebetha la re ke le
202_0361 a se a sa bokolle
202_0362 tu ha kgahliso a mo
202_0364 le lehwatatanyana le saballetse ho
202_0368 se bo bokeletswe le ho
202_0369 eastern orthodox churches
202_0372 ka ditlha ho kgontsha ho
202_0376 boikara belo ba motlolamolao ho
202_0377 se bolelwang ka ho kgethela
202_0378 o ne a ye a
202_0379 asebesetose e se e emisitse
202_0382 e metjha ya sekimi ke
202_0383 le ho rutweng titjhere e
202_0384 meralo diqeto le kameho ya
202_0385 tjhee ke ne kekopa matlaa
202_0387 ba loketseng ho ka lekolwa
202_0389 o ne a ka bellaellwa
202_0390 e hlokahalang ho batlana le
202_0391 ho ka fefolwa ke difefonyana
202_0394 faeba tlelase patsi le seili
202_0395 united states military
202_0400 ka ho rialo ha ke
202_0406 sa ho entela feberu e
202_0407 bontsha ho ba sedi mehopolong
202_0408 o ne a mofilwe ke
202_0409 new york times
202_0413 new age movement
202_0415 ke wa ba wa di
202_0418 wa sepalangwa se sebedisitweng thomelong
202_0420 kgoro ke ha ho kenwa
202_0422 ba ho kgeswa le ho
202_0426 di bopella kahare ho ditekanyetso
202_0427 a tiise le qhelele ka
202_0430 ba di tshwaetsweng le ditekolo
202_0432 hoa ho a ka ba
202_0436 se kgopisehe o se hlekefetse
202_0437 ya lekanngwa ha e le
202_0439 ruburiki ho na le ho
202_0442 ndoh le etseditswe ho etella
202_0445 league championship series
202_0446 ho ajwa ha maruo a
202_0448 bo fetohakang le f ho
202_0449 ho lefshwa e le tefiso
202_0451 sa mekgahlelo ya ditsiane e
202_0452 re re mo tlohelletseng tleneng
202_0453 thipa ka bohaleng ke ka
202_0454 la diphetolelo le tlhaolo ya
202_0455 ho jewang hlenhlenyane ho ya
202_0457 re ke ke ra qhelela
202_0459 a fapaneng le ho ya
202_0460 ba ho qhekanyetsa wa mphato
202_0464 sekgukguni ha a le ka
202_0466 morumo morethetho metuta ya diphetapheto
202_0467 oo lentswe le ka bang
202_0468 ke pac e tshwanelehileng di
202_0469 environmental protection agency
202_0470 ya ya matamo a ho
202_0471 la ka le ne le
202_0472 be ha e ne e
202_0473 oo o o kgethileng ho
202_0474 ba menngweng ka boithaopo ho
202_0477 ba hlanya ho ne ho
202_0479 sa di ja le ho
202_0482 american medical association
202_0483 ha e ka ba kaenyana
202_0485 patanta eo paloyohle ya dipatanta
202_0486 je ba ke ke ba
202_0490 seporo le dikou le ho
202_0491 sheshe le ha e le
202_0492 bitoha se ka mesha o
202_0494 meraro ya ho hweba ka
202_0495 bontatemoholo ba ne baitshepetse ditaola
202_0496 royal australian air
202_0497 eo ho ne ho le
202_0498 e se hlole e ba
202_0499 trade unions ho ba fa
202_0501 dintja di se di thotse
202_0502 le hoketsweng tshepeng ya heke
202_0503 e ikemelang e le notshi
202_0504 music awards winners
202_0506 bo naka di maripa ho
202_0507 ya jenerike e na le
202_0508 a amoheleha ya ho shapa
202_0509 e fumanweng e le dimpho
202_0510 be pelonolo a be le
202_0511 tabakgolo e ne e le
202_0515 ba be ba se ba
202_0516 re ke ke ra swabela
202_0517 se ke lemoimana ha ke
202_0518 renkeng ya baragwanath barekisi ba
202_0520 ka kganyapa ho ne ho
202_0521 ho fumana setifikeiti sa botho
202_0522 eo ba e emetseng ke
202_0524 e se e hlwahlwa hakaalo
202_0526 kotjwa ke motshwaruwa ka ho
202_0529 ho ya ka molawana no
202_0530 a ne a sa tsube
202_0531 bo bokellwe le ho sire
202_0532 american musical theatre
202_0533 united states department
202_0534 le hlolwa ke ho itjarela
202_0535 molaetsa o totobale e be
202_0538 actor academy award
202_0541 o tseba le ho utlwisisa
202_0542 ka ho mo silela lesheleshele
202_0545 rekisa ditholwana ho lokisa ditshupanako
202_0547 tlhekefetso ao ho ya ka
202_0549 ne di qetetse ho tshwauwa
202_0553 ha e ba ha ho
202_0554 missing living people
202_0556 dipenshene a ho se akaretse
202_0558 re kg kg kgrr kgph
202_0559 dikgohlo di a phatsima ke
202_0561 ho na le kgonahalo ya
202_0563 lesika le atolositsweng la ditswala
202_0566 ba be ba mmetse ka
202_0567 le ha ho ne ho
202_0571 re ha ho ne ho
202_0578 ha kgutshwanyana ho ya ka
202_0580 paterone mokgabiso le kaheho ya
202_0581 purchasing power parity
202_0582 eletswa ke mmae mojabeng le
202_0584 ho kenyeleditswe le tlhatlhobo le
202_0585 ke ye a se pholla
202_0586 botemengata le ho ba le
202_0587 ho ne ho se ya
202_0588 ha ke se ke boletse
202_0589 kostsi le ke ke la
202_0591 golden globe award
202_0596 ho sa na le tabanyana
202_0597 ya ho ithuisa e ka
202_0603 bo bottle ha a ka
202_0608 bo be bo o timella
202_0609 john quincy adams
202_0610 ya bongata ba pedi borarong
202_0611 sontaha a leshwe ka ho
202_0615 ha tima haboro e ne
202_0616 moahisane a ka tshireletswa ke
202_0617 e sa le wa motonanahadi
202_0618 le thabo e renang pelong
202_0620 ho hasana le ho kgobokana
202_0621 e bopehileng le e radilweng
202_0622 ya tlotlontswe kgetho ya mantswe
202_0623 be a kwetlise le bakopi
202_0624 ho thapa o ne a
202_0625 kengakayahao ponoyangakaya specialist e ke
202_0626 ya santa peterose e bontshitseng
202_0629 a hlalosang sesotho kateng ke
202_0631 bo ntshuwang v ha ho
202_0633 ba ntsukobokobo ba ne ba
202_0635 a sa phomole o ne
202_0636 e ne e sa kgotsofatse
202_0637 dithaka ka dithaka ke ya
202_0639 ona e ne e le
202_0640 ba eleketeroniki ba se ba
202_0641 ho ne ho buuwa ka
202_0643 lefiswa e qaqisitsweng ha e
202_0645 e hafaka e ne e
202_0646 a qamaka kwana le kwana
202_0647 setorouku ho ye ho hlokahale
202_0648 ke ke wa ntshitisa ka
202_0649 wa phethahatso le moifo wa
202_0650 ya mapolasi e sa kgoneng
202_0651 bahlanka ba beilweng ke molaodi
202_0652 dipampiring e ne e le
202_0655 eo o ka e tlatsang
202_0656 le tahleho sekeng sa leilho
202_0657 supreme court decision
202_0658 hapeterose a ne a latole
202_0659 a re gedan barai kumite
202_0660 ha o sa ka wa
202_0661 saennwe ke moamehi ya nehelanang
202_0662 qalong ha moeti a sa
202_0663 ne a sa sisinyehe le
202_0664 e e a ke le
202_0665 ba ne ba sa je
202_0668 phepompe ho na le dinutriente
202_0670 oo o ka ikgethelang ka
202_0671 o se o tletleba ka
202_0673 di ikarabella phumanong paballong le
202_0674 o ne a bitsitse mmantsopa
202_0675 o tebetseng a re ha
202_0676 moetlong wa mahindu ho hatellwa
202_0677 sefahlehosahao se edile o a
202_0679 ya ka nahanang ho mo
202_0680 ba didietse ba ie phahamise
202_0681 ya phetolelo ya founu ya
202_0682 ho tlatlaptjwa ha dibanka ho
202_0683 countries established diplomatic
202_0684 di le kgolwanyanehamonate e le
202_0685 mmampodi kgwaolla ditswakotleng jm lenake
202_0686 le ha ho nehelanwa ka
202_0687 e tlatsetsang ho ya ka
202_0688 boroko bo se bo iphile
202_0689 tshwarwang ka menwana sa letswai
202_0690 a se ke a tebelwa
202_0691 re se mawelana o mo
202_0694 le ho thakgola ka pejana
202_0696 a b c d e
202_0697 di ka tlamellwa fenseng ho
202_0698 ya khompyutha ha e le
202_0699 actual old content
202_0701 upstate new york
202_0702 benyang ka meomo e hlatswitsweng
202_0703 ba le mahlwele maotong e
202_0704 fihlela qeto e itseng pheletsong
202_0705 ka ha nkepe a feitse
202_0706 ho emisa kgulo ya ditefello
202_0708 ha e ba di le
202_0709 international atomic energy
202_0710 ne e se e fedile
202_0711 tlhaloso ya phihlello thutong ka
202_0713 ba sa itheka morwalo matsatsing
202_0714 re sitele jehova ho rapela
202_0715 o ye a re tshwele
202_0717 wa re kgothometsa maralleng wa
202_0718 e le ho maloro a
202_0719 v v v v ha
202_0720 kutlwahalo le netefatso tiisetso ya
202_0723 ya ka mamellang masisapelo a
202_0724 ba shebediso ya thutapuo le
202_0725 dubious date april
202_0726 clarify date february
202_0727 ha e ne e se
202_0728 be ke iphetola setshehisa sa
202_0729 e ke ke ya senola
202_0730 e e sa etsweng ka
202_0732 e re keneletse ha ho
202_0733 ba hodileng ho itshehetsa le
202_0734 ice hockey team
202_0736 ka mafikeng one a le
202_0737 he ke re ke mo
202_0738 botlase ba selomo bo kwahetswe
202_0739 ntlong ya banyalani le dikahareng
202_0741 mesikaro ya sesole e boimahadi
202_0742 eo a se a befile
202_0743 ho se sebedisane le ho
202_0744 a ba a timellwa ke
202_0745 ka ba le pro forma
202_0746 o re ho se ho
202_0747 shebella ha ngwale e kgiba
202_0748 nfc championship game
202_0749 black sea coast
202_0750 ka ba susumelletsang ho etsadiketso
202_0751 le kgethehile ka foreisetata le
202_0752 kgwiti ka ha le tshaba
202_0754 majerini botoro le mayonaise dijong
202_0755 hobaneng o ne o inanatha
202_0756 busa busa lemati ho a
202_0758 ho ya ka thekolohelo a
202_0759 a sa di ja le
202_0760 tswantsho ya bobodu le mkga
202_0761 la ka le nele tlokoma
202_0762 motaungyane wa seroki ho ya
202_0764 batlisisa ho tshwantsha le ho
202_0765 le basebetsing ba itshebetsang ba
202_0766 hanyane ka hanyane o a
202_0767 re ne re ikinne ho
202_0768 bano ba sa sitisweng ke
202_0769 ho susumetsa le bafana bafana
202_0770 manyaditsweng ka mafuraa nkgang dipompong
202_0771 ba lefshwe ho ya ka
202_0772 esong ho hulwe ditjeho kenyeletsa
202_0773 a siuwe ke makgaola o
202_0774 king george
202_0776 ha boima ke dithoto ekaba
202_0777 ba hore moralo o lebisa
202_0778 konsarete ya mmuni ya ho
202_0779 molaodi wa mafa ya kgethehileng
202_0781 le kakano ya fora dipapatso
202_0782 ke ya ba le ditlhapiso
202_0783 bavouti ba ingodisang ba ka
202_0784 nnyeo ba ne ba shwele
202_0787 ha a re ha ho
202_0789 le ke ke la o
202_0790 ho ba e ananelwe ke
202_0791 close air support
202_0792 ngodiso di a latelwa ngodiso
202_0794 ha ke sa itlhokomele ke
202_0795 sa phomole o ne a
202_0796 e re tataisang menahanong le
202_0797 e ba le boikarabalo bo
202_0799 a se ke a ota
202_0801 e ne e le hoya
202_0803 leholo le tiileng la kaho
202_0804 ho na le kopanyetso ya
202_0805 se be eo mmate wa
202_0806 ya ho pholosa ka ho
202_0807 ditopo a ke ke a
202_0808 civil aviation organization
202_0809 le ho se inyatse ha
202_0810 di indasteri ka ho kgethehileng
202_0811 mmasebolelo butle bo mmanyeo o
202_0812 le ditlwaelo ho ya ka
202_0813 lehwatatanyana le saballetse ho ya
202_0814 ha a kobile mangwejana a
202_0815 ho itshwareletsa ka mahohodi ba
202_0816 matlotlosia ba seba o ne
202_0817 ba kgathatswa ke ho se
202_0818 thibelang mafafatsane a ko bapatse
202_0819 se ka rerang ho di
202_0822 ho bora e sa bolelwang
202_0823 sa deidro di a kgolweha
202_0824 e ja setsi le ho
202_0827 di a o sulafalla ha
202_0828 ka ha di balletswe ke
202_0829 le ho hokahana ka tshebetso
202_0831 eo leyena o ne a
202_0832 ha di robaletse ke o
202_0833 sir isaac newton
202_0835 diterata ka dipeta radiphaphatha a
202_0837 la ho ya le sephume
202_0838 a sa ye kerekeng o
202_0839 o ka re ho ya
202_0840 o be o le sehelle
202_0842 e rabella ka sabole ho
202_0844 mananyetsa o ne a ikgakantse
202_0846 ho ba ya ikanang a
202_0847 lekile ka makgetlokgetlo ho o
202_0849 matlong a rdp ho a
202_0850 wa ho fepa le ho
500_0001 durban
500_0003 ya tshwereng thaetlele kapa monga
500_0004 se kgethollwe ho ya ka
500_0005 borwa e se nang morabe
500_0006 ditaba tsena di nkilwe thutong
500_0007 madison square garden
500_0008 le reng limited le tla
500_0009 wa afrika borwa ya hlokahetseng
500_0011 ha ho kgethwa dipuo tseo
500_0024 early church fathers
500_0028 american psychiatric association
500_0029 october
500_0035 org wiki wikipedia
500_0036 holy hand grenade
500_0037 senqu
500_0040 dikopo tse sa tlatswang ka
500_0044 lokelang ho fetolelwa bafetoleding ba
500_0045 setsi se haufi sa mesebetsi
500_0049 tailor
500_0057 e tswang ho registrar of
500_0061 leqephe la pele la foromo
500_0066 bafta winners people
500_0069 recreation
500_0080 national hockey league
500_0081 following world war
500_0089 modern orthodox judaism
500_0090 strategic air command
500_0094 best foreign language
500_0095 roman catholic priests
500_0097 european economic area
500_0101 hlahisa dijothollo di phahame haholo
500_0102 ho kenngwa tshebetsong ha melao
500_0109 kenngwa ha jine ya bt
500_0112 fact date march
500_0114 van der waals
500_0122 motho ya tshwereng thaetlele kapa
500_0123 randfontein
500_0135 best foreign language
500_0138 golden globe film
500_0139 o neng o rena ditherisanong
500_0141 dingane
500_0147 ntswaki
500_0151 baheno
500_0153 american psychiatric association
500_0155 setifikeiti sa tswalo sa afrika
500_0160 tsosoloso ya boemo ba theshiari
500_0165 nelson mandela le thabo mbeki
500_0166 poids et mesures
500_0173 bridgeport
500_0176 le ho romela ditokomane ho
500_0179 man
500_0183 tlhaho temeng ya saense ya
500_0191 hospital
500_0193 congressional gold medal
500_0198 hall
500_0203 chancellorsville
500_0210 environmental protection agency
500_0215 formal diplomatic relations
500_0216 san francisco giants
500_0217 sa witblits se neng se
500_0220 screen actors guild
500_0221 tailor
500_0222 motor vehicle manufacturers
500_0223 golden globe winners
500_0227 nfc championship game
500_0229 numeric character references
500_0232 strategic air command
500_0234 free methodist church
500_0235 leqephe la pele la foromo
500_0236 a ka nna a baka
500_0238 federal trade commission
500_0242 ho behela taelo ka thoko
500_0244 miller's
500_0245 strong nuclear force
500_0246 madison square garden
500_0247 harry
500_0248 proffesor
500_0251 internet protocol suite
500_0257 bilateral immunity agreement
500_0260 church turing thesis
500_0264 protea
500_0272 valhalla
500_0274 la boemo bo hodimo la
500_0276 kapa hofe ho ka bang
500_0278 le hore re tle re
500_0280 electron transport chain
500_0285 french west africa
500_0295 united states geological
500_0298 borwa e se nang morabe
500_0300 e tswang ho registrar of
500_0301 international atomic energy
500_0302 articles including recorded
500_0305 ha eba kere e potolohisang
500_0319 russian civil war
500_0321 ya tshwereng thaetlele kapa monga
500_0327 kopo ya setefikeiti sa ho
500_0329 united states president
500_0330 randburg
500_0331 holy hand grenade
500_0334 recreation
500_0336 setsi se haufi sa mesebetsi
500_0340 saint john river
500_0342 history
500_0344 national science foundation
500_0351 centrally planned economy
500_0354 tlhahiso ya poone le mmaraka
500_0355 saense ya tlhaho dikri diploma
500_0357 e leng se etsang hore
500_0358 hore menyenyetsi e mabapi le
500_0359 gibbon
500_0360 states environmental protection
500_0363 human development index
500_0369 org wiki wikipedia
500_0371 junior high school
500_0373 royal albert hall
500_0375 ho se ho kenwe ho
500_0376 common law jurisdictions
500_0377 rala mme o romele ditokomene
500_0379 ha fela ho sa ntse
500_0380 fifa world cup
500_0382 mme re tshepa hore moya
500_0383 buddhism
500_0390 american film producers
500_0396 ya poso e sa risefuwang
500_0397 lekala
500_0398 hartbeespoort
500_0399 great lakes region
500_0400 foreign direct investment
500_0404 potter's
500_0405 tse felletseng tsa moo ho
500_0408 citation needed april
500_0411 boqwabi
500_0412 mang ya ikemiseditseng ho nehelana
500_0413 television shows set
500_0418 system
500_0420 bafta winners people
500_0424 bragg
500_0428 moo motho a fumanang kuno
500_0429 following world war
500_0430 nuclear test ban
500_0434 naha ya afrika borwa ba
500_0442 new york yankees
500_0443 karolong e ka tlase ya
500_0445 military coup
500_0453 e nang le share capital
500_0455 southwestern united states
500_0456 high seas fleet
500_0457 north germanic languages
500_0461 african
500_0469 modern orthodox judaism
500_0470 re tsebang ho sebetsa re
500_0471 eo re neng re e
500_0472 army air corps
500_0473 ho ntsha raporoto ya radiology
500_0476 roman catholic priests
500_0477 nakwana ke ho thusa balefi
500_0483 european economic area
500_0486 october
500_0487 national football team
500_0489 big bang model
500_0491 l cuin abbr
500_0492 rona bo tataiswe haholo ke
500_0494 united states senate
500_0496 central
500_0498 argentina ho ya afrika borwa
500_0499 president george
500_0502 empire
500_0507 seo o hopotseng ho se
500_0509 moscow state university
501_0001 senqu
501_0003 provenseng kang ho tla ba
501_0005 e le kgolo ho eo
501_0007 american psychiatric association
501_0008 o motsho le o mosweu
501_0009 ya ho lebela ya bopolesa
501_0010 tsa larvae hammoho le mahe
501_0012 le hore re tle re
501_0015 sireletsa le ho matlafatsa botsebi
501_0016 ya hae ntle ho lebaka
501_0017 ozone layer protection
501_0019 e na le boikarabelo ba
501_0022 e tswang ho registrar of
501_0024 screen actors guild
501_0025 e kenella tlase mobung le
501_0026 sam
501_0028 e sebetswa letsatsing leo e
501_0029 moahong wa lekgotla la naha
501_0030 kenngwa ha jine ya bt
501_0032 september
501_0033 ya sefafatsi se fatshe sa
501_0034 hore ho na le tshebetso
501_0036 complaints
501_0037 haufi le wena kapa ba
501_0042 madison square garden
501_0044 ya ho ba teng ha
501_0045 ya saense ya lekgotleng la
501_0046 bao e leng ditho tsa
501_0048 north west company
501_0050 tokomane eo o batlang ho
501_0051 tlhaho temeng ya saense ya
501_0052 le ho tempuwa ke mosebeletsi
501_0053 president george
501_0057 ho tshwasa ka palo e
501_0058 formal diplomatic relations
501_0059 new york jets
501_0061 randfontein
501_0062 ding le tse ding tse
501_0064 eighty years war
501_0068 sa leano la ditekanyetso tsa
501_0069 ya kopo ofising e haufi
501_0071 new york yankees
501_0073 be bonolo ho palama baesekele
501_0074 bophelong
501_0075 south asian association
501_0076 ke ema ka pela lona
501_0077 sa sepolesa sa afrika borwa
501_0079 bilateral immunity agreement
501_0080 roman catholic priests
501_0081 lekgotleng la dinyewe ho tla
501_0082 ngotsweng ya ho ngodisa ofising
501_0083 sepolesa sa aforikaborwa e lefe
501_0084 supreme court ruled
501_0086 ka nngwe e na le
501_0087 tshebeletso ya poso e sa
501_0088 ba ngodise ho south african
501_0091 cathode ray tube
501_0094 common law jurisdictions
501_0095 modern orthodox judaism
501_0097 san francisco giants
501_0101 army air corps
501_0102 united states geological
501_0104 congressional gold medal
501_0105 man
501_0106 bad
501_0108 electron transport chain
501_0112 numeric character references
501_0113 o neng o rena ditherisanong
501_0114 big bang model
501_0119 central
501_0124 national hockey league
501_0125 ka mokgwa o nepahetseng nakong
501_0129 american jewish people
501_0131 july
501_0132 national science foundation
501_0134 dipeo le dipeo tse hlahang
501_0136 tsitsitseng mmusong maemong le ha
501_0137 ya mahola le dikokwanyana ka
501_0140 ofisi ya lefapha le haufi
501_0141 fifa world cup
501_0144 hore menyenyetsi e mabapi le
501_0145 moralo wa leano la puo
501_0148 empire
501_0151 hore mobu o na le
501_0152 la afrika borwa la basebetsi
501_0155 poids et mesures
501_0156 recreation
501_0158 european economic area
501_0159 national football team
501_0161 power parity comparisons
501_0164 nakong eo masimo a tlohetsweng
501_0167 mokgwa wa elektroniki kapa khaontareng
501_0168 law enforcement agencies
501_0169 haholo ke moruo wa tsona
501_0172 maano a tsona ho latela
501_0174 primitive recursive functions
501_0177 motor vehicle manufacturers
501_0179 le reng limited le tla
501_0180 lokile pele o etsa kopo
501_0181 bona ba na le tokelo
501_0184 tailor
501_0187 tlhahiso ya poone le mmaraka
501_0188 a lehodimo nakong ya tshebediso
501_0189 american male singers
501_0190 gibbon
501_0192 e ntshitsweng ke bolaodi bo
501_0194 phethahatso ya leano lena e
501_0199 ha eba o hloleha ho
501_0201 ha puo e lahlehelwa ke
501_0206 african
501_0207 leqephe la pele la foromo
501_0208 military coup
501_0214 efe kapa efe e boletsweng
501_0226 free methodist church
501_0233 le ho tloswa ha matlakala
501_0234 lekgotla la ho ntshuwa ha
501_0236 mabapi le sehla se tlang
501_0237 midrand
501_0238 united states senate
501_0240 argentina ho ya afrika borwa
501_0241 nelson mandela le thabo mbeki
501_0245 kontane kapa ka tjheke e
501_0246 org wiki wikipedia
501_0247 motho a tshwerweng ho yona
501_0248 hall
501_0252 international atomic energy
501_0253 potter's
501_0254 a diphoofolo tsa afrika borwa
501_0255 chancellorsville
501_0256 ya tshwereng thaetlele kapa monga
501_0264 citation needed april
501_0266 red blood cells
501_0267 van der waals
501_0269 golden globe winners
501_0274 mabitso a bonkgetheng bakeng sa
501_0275 north germanic languages
501_0277 strategic air command
501_0282 centrally planned economy
501_0283 ha fela ho sa ntse
501_0284 e leng se etsang hore
501_0285 randburg
501_0286 palestine liberation organization
501_0288 ba ka hodimo ho dilemo
501_0289 e le hore ba tle
501_0290 ho etsa kopo ya taelo
501_0291 baahi ba afrika borwa kapa
501_0306 hore ba kgone ho ba
501_0307 ho tloha sebopehong sa kgale
501_0308 junior high school
501_0310 october
501_0312 original game boy
501_0314 dingane
501_0316 re kopa hore o ele
501_0317 mang ya ikemiseditseng ho nehelana
501_0318 la dibokonyana tsena tse salang
501_0321 russian civil war
501_0325 united states census
501_0332 tlhahiso ya poone tlasa nosetso
501_0335 eo re neng re e
501_0339 ka ntle ya batlang ho
501_0340 aterese ya moo o dulang
501_0341 tswela pele ho sebetsa le
501_0342 bridgeport
501_0345 foreign direct investment
501_0348 bafta winners people
501_0349 proffesor
501_0352 strong nuclear force
501_0358 kopi e tiiseditsweng ya bukana
501_0359 holy hand grenade
501_0366 ho ntsha raporoto ya radiology
501_0367 environmental protection agency
501_0378 rala mme o romele ditokomene
501_0389 nuclear test ban
501_0390 states environmental protection
501_0391 lefapheng la kgwebo le indasteri
501_0392 recent common ancestor
501_0393 armoured fighting vehicles
501_0395 magnetic resonance imaging
501_0397 makgoweng
501_0400 protea
501_0402 system
501_0403 buddhism
501_0404 tlwaelo e ke ke ya
501_0406 laesense ya boditjhaba ya ho
501_0410 saint john river
501_0411 french west africa
501_0417 southwestern united states
501_0422 ho kenngwa tshebetsong ha melao
501_0423 united states army
501_0426 madison square garden
501_0428 bragg
501_0431 american film producers
501_0433 tlhahiso e tswetseng pele ya
501_0436 sa witblits se neng se
501_0437 ha eba kere e potolohisang
501_0438 high seas fleet
501_0439 seng le lefilwe bakeng sa
501_0443 e nang le share capital
501_0450 boqwabi
501_0453 articles including recorded
501_0454 lokelang ho fetolelwa bafetoleding ba
501_0458 kgahlanong le dikgoka ho basadi
501_0460 ka morero wa ho matlafatsa
501_0462 human development index
501_0466 le dipehelo tse ding tse
501_0467 tse felletseng tsa moo ho
501_0468 average family size
501_0470 grammatical
501_0477 monroe
501_0481 early church fathers
501_0489 church turing thesis
501_0490 blood
501_0491 miller's
501_0493 ho isa ho tse nne
501_0494 ho ngodisa jwalo ka setsebi
501_0496 american political writers
501_0498 leng hore ha ho hlokehe
501_0500 liberal arts college
501_0501 dikgatiso tsa tshebediso ya dipuo
501_0502 moralo wa tshebetso wa naha
501_0504 animated television series
501_0508 ho thehwa ha diyuniti tsa
501_0509 tlhekelo ka letona la bonono
501_0511 a ka nna a fafatswa
501_0516 clarify date february
501_0526 army occupied cypriot
501_0527 united states district
501_0529 petroleum exporting countries
501_0540 rephaboliki
501_0542 ho etsa kopo ya tumello
501_0545 open source initiative
501_0546 ba thupelo ba lokela ho
502_0002 palestine liberation organization
502_0003 dikarolo dife kapa dife tse
502_0015 ding le tse ding tse
502_0016 holy hand grenade
502_0018 average family size
502_0022 complaints
502_0023 hartbeespoort
502_0031 bilateral immunity agreement
502_0032 system
502_0033 television shows set
502_0045 modern orthodox judaism
502_0047 bill
502_0048 sam
502_0049 ha re sebetsa mmoho re
502_0051 recent common ancestor
502_0054 african
502_0067 tse felletseng tsa moo ho
502_0069 september
502_0071 la afrika borwa la basebetsi
502_0073 mabapi le mefuta e metle
502_0077 sebedisa tlhahisoleseding e kentsweng ke
502_0082 maano a tsona ho latela
502_0083 church turing thesis
502_0085 mokgatlo o emetseng basebeletsi tumellanong
502_0088 foreign direct investment
502_0093 award winning authors
502_0094 l cuin abbr
502_0100 strong nuclear force
502_0106 sa witblits se neng se
502_0112 org wiki wikipedia
502_0114 ka nngwe e na le
502_0119 supreme court ruled
502_0121 junior high school
502_0122 tsosoloso ya boemo ba theshiari
502_0123 october
502_0125 feta pele hore ho na
502_0126 sa sepolesa sa afrika borwa
502_0131 butlebutle ka mokgwa o ke
502_0134 motor vehicle manufacturers
502_0139 ya phemiti ya bodulo ba
502_0140 wa etsa tshebetso tsa kgwebisano
502_0143 provenseng kang ho tla ba
502_0147 states environmental protection
502_0154 numeric character references
502_0164 ho se ho kenwe ho
502_0173 protea
502_0174 american film producers
502_0177 centrally planned economy
502_0178 european economic area
502_0180 federal trade commission
502_0181 internet protocol suite
502_0184 buddhism
502_0190 tshebetso ya botsebi ba saense
502_0191 new york yankees
502_0192 le kgonahalo ya hore batho
502_0193 nelson mandela le thabo mbeki
502_0197 randburg
502_0198 ka ho lekola tswelopele ya
502_0209 fifa world cup
502_0213 san francisco giants
502_0214 recreation
502_0215 tlwaelo e ke ke ya
502_0216 senyesemane
502_0217 di ka etswa hape le
502_0219 senqu
502_0220 mamelodi
502_0221 re tsebang ho sebetsa re
502_0224 international atomic energy
502_0227 miller's
502_0228 tlasa merero e hlwauweng mona
502_0229 lekgotleng la dinyewe ho tla
502_0231 bafta winners people
502_0235 o na le diterekere le
502_0236 efe kapa efe eo ho
502_0237 randfontein
502_0239 boqwabi
502_0241 mang ya ikemiseditseng ho nehelana
502_0242 wa afrika borwa a ka
502_0243 ho sireletsa le ho matlafatsa
502_0245 madison square garden
502_0248 leng se bolelang hore ho
502_0253 harry
502_0254 ho tshwarella nako e telele
502_0255 se fetileng sa hlabula e
502_0256 national hockey league
502_0257 armoured fighting vehicles
502_0258 hore ba kgone ho ba
502_0259 hodimo ho moo ba tla
502_0260 hore ditokomane tsa mmuso ha
502_0261 american male singers
502_0262 screen actors guild
502_0265 ho hlokeha lengolo la tumello
502_0266 president george
502_0267 ho tholwa ha ngwana ka
502_0270 bakeng sa morwalo o mong
502_0272 mokgwa wa elektroniki kapa khaontareng
502_0273 le hore re tle re
502_0275 akhaonteng e latelang ya banka
502_0277 be bonolo ho palama baesekele
502_0278 tlasa bolaodi ba mmuso wa
502_0280 best supporting actor
502_0281 mang ya ka etsang kopo
502_0282 tsa larvae hammoho le mahe
502_0283 ba lakatsang ho sebetsa jwalo
502_0285 hall
502_0286 bao e leng ditho tsa
502_0288 kopo ya setefikeiti sa ho
502_0295 united states
502_0296 hore mobu o na le
502_0297 dutch east india
502_0298 good
502_0300 potter's
502_0301 tumello e ngotsweng fatshe e
502_0302 formal diplomatic relations
502_0304 bridgeport
502_0306 ditaba tsena di nkilwe thutong
502_0310 electron transport chain
502_0312 united states geological
502_0313 mesebetsi efe ya ho mmaraka
502_0320 ha metsi pakeng tsa dikarolwana
502_0322 original game boy
502_0323 fiction television series
502_0326 a na le tokelo ya
502_0327 banka
502_0329 golden globe film
502_0330 fact date august
502_0332 ozone layer protection
502_0333 pholisi ya naha ya batjha
502_0334 ya sefafatsi se fatshe sa
502_0336 environmental protection agency
502_0338 human development index
502_0342 high seas fleet
502_0345 common law jurisdictions
502_0349 madison square garden
502_0350 chancellorsville
502_0352 poids et mesures
502_0353 ka baka hore a lefiswe
502_0354 aterese ya moo o dulang
502_0356 ya thuso bakeng sa ho
502_0361 gibbon
502_0369 blood
502_0370 north germanic languages
502_0373 big bang model
502_0375 ile ba hapa moputso wa
502_0380 red blood cells
502_0381 valhalla
502_0382 mme re tshepa hore moya
502_0383 motho e mong ya nang
502_0387 following world war
502_0388 history
502_0391 ya ho tswela pele ha
502_0392 nuclear test ban
502_0394 primitive recursive functions
502_0399 maseru
502_0401 roman catholic priests
502_0406 kopi e tiiseditsweng ya bukana
502_0408 congressional gold medal
502_0409 july
502_0411 ya mobu bakeng sa ntshetsopele
502_0412 eo re neng re e
502_0417 durban
502_0419 monroe
502_0422 seng feela ke ba buang
502_0425 tlhahiso e tswetseng pele ya
502_0428 southwestern united states
502_0432 di tswela pele ho sa
502_0433 strategic air command
502_0436 best foreign language
502_0437 john
502_0438 supreme allied commander
502_0439 van der waals
502_0441 le dipehelo tse ding tse
502_0442 tlhahiso ya dijothollo mobung o
502_0445 hospital
502_0446 boholo ba masimo a hao
502_0447 ya ho lebela ya bopolesa
502_0448 cathode ray tube
502_0449 indastering e batsi ya temo
502_0454 man
502_0455 tlamehile maoto le matsoho ho
502_0457 national football team
502_0459 le ho tempuwa ke mosebeletsi
502_0461 tlhahiso ya poone le soneblomo
502_0463 ho ntsha raporoto ya radiology
502_0465 midrand
502_0466 a lehodimo nakong ya tshebediso
502_0467 o okina ahu
502_0468 kgopolo ya hore dihlahiswa tse
502_0469 magnetic resonance imaging
502_0471 leqephe la pele la foromo
502_0476 bragg
502_0477 free methodist church
502_0478 tse phahameng tsa taolo ka
502_0481 ba bangata ba ile ba
502_0482 kenngwa ha jine ya bt
502_0486 moo ho ipehilweng ka tsela
502_0487 ka tsela e ke keng
502_0489 nfc championship game
502_0491 bad
502_0493 french west africa
502_0501 liberal arts college
502_0502 united states district
503_0002 org wiki wikipedia
503_0007 armoured fighting vehicles
503_0009 recent common ancestor
503_0016 hall
503_0017 be bonolo ho palama baesekele
503_0018 good
503_0020 american male singers
503_0021 eo re neng re e
503_0022 league baseball team
503_0023 ke ke wa kgona ho
503_0025 ozone layer protection
503_0026 haholo ke moruo wa tsona
503_0027 strategic air command
503_0037 bad
503_0039 kapa hofe ho ka bang
503_0042 bill
503_0044 bafta winners people
503_0045 red blood cells
503_0046 empire
503_0047 ho se ho kenwe ho
503_0050 madison square garden
503_0052 ka ho lekola tswelopele ya
503_0053 grammatical
503_0056 ya mobu bakeng sa ntshetsopele
503_0057 pakeng tsa dikarolwana tsa mobu
503_0058 centrally planned economy
503_0063 foreign direct investment
503_0067 early church fathers
503_0068 american psychiatric association
503_0070 free methodist church
503_0072 miller's
503_0084 modern orthodox judaism
503_0087 l cuin abbr
503_0089 citation needed april
503_0091 average family size
503_0093 magnetic resonance imaging
503_0094 tse ka hodimo tsa mobu
503_0096 senqu
503_0103 united states census
503_0106 efe kapa efe eo ho
503_0112 tlwaelo e ke ke ya
503_0113 nuclear test ban
503_0117 protea
503_0118 midrand
503_0119 cathode ray tube
503_0122 le ho tempuwa ke mosebeletsi
503_0125 ya thuso bakeng sa ho
503_0126 chancellorsville
503_0130 ka mokgwa o hlakileng ho
503_0136 formal diplomatic relations
503_0142 o okina ahu
503_0143 russian civil war
503_0145 ka nepo le ho boloka
503_0146 sebediswa ho laola lebelo la
503_0153 internet protocol suite
503_0154 ha fela ho sa ntse
503_0155 lenane la batho ba e
503_0156 e nang le share capital
503_0157 ya saense ya lekgotleng la
503_0158 hlahisa dijothollo di phahame haholo
503_0159 ya hae ntle ho lebaka
503_0160 setsi se haufi sa mesebetsi
503_0161 ntswaki
503_0162 bophelong
503_0163 terekere le disebediswa tsa polasing
503_0164 tadimilwe thibelo ya tlhodisano le
503_0165 a ka nna a baka
503_0166 ke ema ka pela lona
503_0167 hartbeespoort
503_0168 moahong wa lekgotla la naha
503_0169 kgatello ya tshebediso ya mefuta
503_0170 tlhaho temeng ya saense ya
503_0171 seboka sa naha le lekgotla
503_0172 le reng limited le tla
503_0173 bakeng sa nako ya boholo
503_0174 laesense ya boditjhaba ya ho
503_0175 o lokela ho ba motho
503_0176 fifa world cup
503_0177 recreation
503_0178 kopo ya laesense ya sekepe
503_0179 tse phahameng tsa taolo ka
503_0180 e le kgolo ho eo
503_0181 hospital
503_0182 mme hona ho tla ya
503_0183 gibbon
503_0187 bilateral immunity agreement
503_0198 saint john river
503_0209 tailor
503_0210 award winning authors
503_0218 san francisco giants
503_0232 american film producers
503_0233 holy hand grenade
503_0235 durban
503_0238 potter's
503_0244 best foreign language
503_0245 poids et mesures
503_0248 blood
503_0253 a lehodimo nakong ya tshebediso
503_0254 strong nuclear force
503_0256 ya tumello ya ho romela
503_0260 tlamehile maoto le matsoho ho
503_0262 madison square garden
503_0270 ha e kenyeletse hlapi ya
503_0277 convention
503_0278 kenngwa ha jine ya bt
503_0280 southwestern united states
503_0281 golden globe winners
503_0282 randfontein
503_0285 supreme allied commander
503_0290 motor vehicle manufacturers
503_0297 court ha e le traste
503_0298 le eneji le la dikgwebo
503_0301 indastering e batsi ya temo
503_0302 e nngwe ya tsona e
503_0303 national football team
503_0306 october
503_0308 tlhahiso ya poone le mmaraka
503_0316 electron transport chain
503_0329 common law jurisdictions
503_0332 south asian association
503_0334 bragg
503_0338 nakwana ke ho thusa balefi
503_0341 palestine liberation organization
503_0342 ho behela taelo ka thoko
503_0351 church turing thesis
503_0354 screen actors guild
503_0357 primitive recursive functions
503_0360 proffesor
503_0365 tsosoloso ya boemo ba theshiari
503_0369 african
503_0375 sam
503_0389 environmental protection agency
503_0391 tsa larvae hammoho le mahe
503_0392 bridgeport
503_0393 randburg
503_0399 congressional gold medal
503_0401 national hockey league
503_0410 red blood cells
503_0421 man
503_0424 new york yankees
503_0426 golden globe film
503_0427 seng feela ke ba buang
503_0430 baheno
503_0432 united states geological
503_0437 nfc championship game
503_0439 fact date august
503_0443 following world war
503_0446 history
503_0449 north germanic languages
503_0452 september
503_0454 ha eba o hloleha ho
503_0458 supreme court ruled
503_0460 complaints
503_0463 harry
503_0472 e ya ho lefapha la
503_0478 le o mong o na
503_0485 leqephe la pele la foromo
503_0494 big bang model
503_0495 valhalla
503_0497 power parity comparisons
503_0498 ya pele e neng e
503_0504 ho tswela pele ho ya
503_0505 open source initiative
503_0507 rephaboliki
503_0510 nebula award winning
503_0511 e na le dimojule tse
503_0513 army occupied cypriot
503_0516 petroleum exporting countries
503_0519 leng hore ha ho hlokehe
503_0520 billy
503_0523 clarify date february
504_0002 axiomatic set theory
504_0006 uefa champions league
504_0010 international security assistance
504_0023 public transport network
504_0024 kgaitsedi le motjhana ba buileng
504_0043 sekemeng re ke ke ra
504_0046 bafe ba ka ha re
504_0050 ho imolla nkgono ho jareng
504_0051 database management systems
504_0052 security assistance force
504_0053 a a nkellang hloohong e
504_0057 d e f le g
504_0058 ne a makatswa ke ho
504_0065 utlwi sisa se hlahiswang ha
504_0072 bo yo ha ho ba
504_0078 e meile ho tsoma ho
504_0083 sa ho tenyetseha le ho
504_0092 ho hohela babadi ho reka
504_0093 wa general electric bekeng e
504_0094 ha ntate a ka a
504_0097 e le ho ya yunivesithing
504_0100 e tlamehang ho nkuwa ho
504_0104 german air force
504_0105 o ne a nkile moriri
504_0106 o a iphapanya o re
504_0109 la provinse dibankeng le ho
504_0110 e governance e learning e
504_0111 po ka dimpa a be
504_0114 setho e tiisang boitshetleho ba
504_0116 le lebiswa ho moadvokate j
504_0118 operation desert storm
504_0119 united states congress
504_0121 hong kong island
504_0123 hillbrow e ne e le
504_0124 itshwere thekeng a re ho
504_0125 le d ho tshireletsa leqheku
504_0127 yaka le beso ba a
504_0129 e sa rerwang a sa
504_0134 re se re o bolelletse
504_0136 wee ee a hweletsa a
504_0137 ho nyalanngwa ha di rutwa
504_0142 ba e abetsweng le ho
504_0143 san ji go roc sichi
504_0147 manganga a tenang ho kgaruma
504_0152 na ha ho le tjee
504_0153 fact date november
504_0154 ya ahloletsweng tjhankana ka ho
504_0159 oo ha re a phekgohe
504_0160 towe o mo phetha ka
504_0163 di hlahlojwe le ho fumantshwa
504_0164 a laelamohalehore a tswebodibenghore a
504_0165 international telecommunication union
504_0166 television series endings
504_0170 kgulo ya ditefello e etswang
504_0179 labalabele le ho bo labalabela
504_0195 ya b ya foromo ya
504_0196 o busang le ho ameha
504_0197 ha ba sa re tshepa
504_0198 ka ho phoqa oo be
504_0200 nyollwa kadiranta le ha ho
504_0202 monene ha re ne re
504_0203 imperial japanese army
504_0208 greatest common divisor
504_0209 a se a re phoqile
504_0210 tshebedisanommoho ba bophihlelo ba boiketsetso
504_0217 le ntshwarele e ne e
504_0219 diqhoku di batalletse o sefika
504_0220 data link layer
504_0221 a kwenne e le poropotlwana
504_0222 la inshorense ya ho hloka
504_0223 army occupied cypriot
504_0226 ho sisiki boranti le dipiriti
504_0230 ka horekeboqaba le ha e
504_0233 rapid economic growth
504_0234 jo ha qwading e le
504_0235 early nineteenth century
504_0246 tshenyo ha e felle mono
504_0247 balfour e mpumalanga le thembisa
504_0254 sister ruth e ne e
504_0260 i dikonteraka ta disiling ho
504_0262 wa tekolobotjha ya bolekane ba
504_0263 ba ka sireletsang le ho
504_0264 social distress relief grant le
504_0265 a selehae le ha e
504_0267 armenian apostolic church
504_0270 league baseball players
504_0272 electron transport chain
504_0274 habedi hararo yaba o a
504_0277 old west norse
504_0286 meqoqo ya phirimana j g
504_0287 morethetho metuta ya diphetapheto le
504_0292 ekwa ke lekgomosha le itswelang
504_0293 o lekole phamflete ya adoption
504_0298 e le lekonstabole boriki le
504_0299 e ka rekiswang e ka
504_0300 united states air
504_0306 e behuweng ha e le
504_0316 sinclair zx spectrum
504_0320 mmamphele ka sekotlo wa sala
504_0322 le boloko ba ditsebiso dipale
504_0323 le motletlebi e be le
504_0326 ka mahafing le masapong a
504_0328 diau o ne a se
504_0331 ka ha dipotso di nomorilwe
504_0334 di fetisetswa sehlopheng se setjha
504_0335 baneng e re hokahanya le
504_0339 e le mo ba sa
504_0341 ha mokuru o se o
504_0343 ya mahlale le thekenoloji ntshetsopeleng
504_0344 ho sotlwa ka ho utlwiswa
504_0345 ye di se latelane ho
504_0355 o a hlwephetsa o tjho
504_0357 higher education institutions
504_0360 ka ha ke se ke
504_0362 african american musicians
504_0364 tshwarwa ka sephiri ka dinako
504_0365 bo ka se fele ha
504_0366 e kopanetsweng e ka kgutsufatsa
504_0368 re ke o emetse ha
504_0371 dinepe ditshwantsho diselaete mmino modumo
504_0375 a re qaleng ho ba
504_0378 ho di developer le ho
504_0380 free software movement
504_0382 e ba ha e be
504_0388 hoile a keketehisa ao mabewana
504_0390 menu e phuthollang dropdown ya
504_0391 ya lapeng ho ya ho
504_0393 re be re arohanngwa ke
504_0394 e theko e boima ya
504_0396 le boikokobetso o ne a
504_0399 ba iphumanang ba le ho
504_0401 ke o tehele mohlalanyana o
504_0403 la ka ke dudu bukaneng
504_0406 game boy color
504_0415 hahelwa servcon ke thubelisha homes
504_0416 le ha ho ka ba
504_0417 lebanese armed forces
504_0418 ba fekisana ka dithipa le
504_0420 ha ho na le molekodi
504_0421 early christian church
504_0423 fihlelammatoko a pitika a meneka
504_0425 o ne o ikopa ho
504_0427 ba ripitla wadene le mabotho
504_0428 arthur conan doyle
504_0429 lebekere la oli le borotho
504_0430 indian classical music
504_0432 bo tsamaelanang le tjhesehelo e
504_0433 association football clubs
504_0434 b abela ho phethwa ha
504_0435 ho hang kaha e lekotswe
504_0437 hetse sa ba sa itlamela
504_0438 di re tsuuu a tsitsinya
504_0439 ba jang setoto ka lere
504_0443 emperor sh wa
504_0445 nobel prize winner
504_0446 e sa ikadimeng meelelo e
504_0449 he a ba a thunya
504_0453 a e tidinya ha engwa
504_0454 hlwaya le ho fihlela moelelo
504_0456 e le ho rothisa keledi
504_0457 hlahe ho o fa dikeletso
504_0468 a lebisitseng ho thehweng ha
504_0469 europe music awards
504_0473 e ka la mmamodukule o
504_0480 ke o rata ke tiile
504_0483 melodi diqhomane di kititsa le
504_0485 supreme allied commander
504_0486 madume ho boetapele ba mokga
504_0487 tefello ka ho toba akhaonteng
504_0488 la abiele ha re sa
504_0490 o mpolella kedibitlahadi e kaana
504_0491 le thelefounung ho di e
504_0492 ne o hirile bahiruwa ba
504_0493 ho kgwehlang e ne e
504_0495 pope pius
504_0497 mo memela le meketeng o
504_0498 o entswe ka botlalo ka
504_0499 aterese le nomoro ya mohala
504_0501 tlohetse mosebetsiwane wa dikitjheneng ka
504_0505 second punic war
504_0506 socialist workers party
504_0509 army air forces
504_0510 international astronomical union
504_0511 ha difensetere di tjhwatleha le
504_0513 commedia dell arte
504_0514 moeti ya ikemetseng wa ditjhankane
504_0515 le kgothaletso ya boikgwantlello le
504_0517 le tjharola ya mohlankana e
504_0519 le lempetje ha ore o
504_0520 los angeles dodgers
504_0522 american female singers
504_0525 fetotsweng lefutso le v melawaneng
504_0528 ya sethatho ho iswa ho
504_0532 a be a yo re
504_0535 second world war
504_0539 oo mokobobo o na le
504_0540 calluses ho di vocal cord
504_0542 ho ya thupelong ya tjhoriso
504_0546 a e i o u
504_0551 bapisa maelana a ho kholomo
504_0552 boemedi ao ho nehelanweng ka
504_0553 he di ne di ye
504_0554 motsotuwa ho se ho se
504_0557 anetse ho ba re hedi
504_0558 ho atolosa le ho matlafatsa
505_0003 poho ya mokgerane e ka
505_0005 cite press release
505_0006 ho etsa bonnete ba hore
505_0011 re qhau a mo sudubanyafatshe
505_0012 unrestricted submarine warfare
505_0013 wa thuto le thupello e
505_0016 moepa oo ke tshwanelwang ho
505_0017 ka ha ho ne ho
505_0018 e ho na le methwaela
505_0021 pope pius
505_0022 seratswana sa d ha e
505_0024 ho ithuteng le ho rutweng
505_0025 le adv j de lange
505_0026 ya remittance advice ya nothisi
505_0030 wolf whistled le ho betwa
505_0033 hose phahle makunutu abonaj k
505_0034 le sa tlohe phofung ya
505_0036 inspector of mines ciom ya
505_0038 kutu ya sefate e le
505_0039 re di etse mohatla kgwiti
505_0041 re ha o a thaba
505_0042 enngwe a le akgele ka
505_0043 na ba e rutilwe ke
505_0046 hiruwa ha ka potefoliong ya
505_0048 o se tlodise ho ja
505_0049 le ho tlanya typing o
505_0050 tsejwalo a ba a re
505_0051 tiehiso ya ho phethela dikarolo
505_0053 ya mmofu e kgonya mokgwabong
505_0054 se ka mpitsa moratuwa wa
505_0055 mixed martial arts
505_0056 tsotella le ho phedisana ka
505_0058 camp david accords
505_0060 ya lejwe la ntatao eo
505_0065 union member economies
505_0066 ya a a nkellang hloohong
505_0067 nthe hee ka ka ka
505_0068 di so ka di rekiswa
505_0069 ka ha re se re
505_0070 wa thoteng tlhophollo le tlhaloso
505_0071 a rohakane a be a
505_0074 a ka monyeha letlalong ka
505_0076 ho ya ditameneng shu ha
505_0077 a sa kgarumemmakarabelo motsotsong oo
505_0079 ba ka nthusang ho itholamorwalo
505_0081 le ha ho qaqisitswe ka
505_0083 ya tsitsinngwa ke diheshana bomafisa
505_0086 d ho hokahanya le ho
505_0090 di ka qhalakanngwa le di
505_0095 kgele a tsoha a tlola
505_0097 eo ho ne ho sa
505_0100 le ho re kumela ka
505_0101 sa le ka madungwadungwa ke
505_0102 senyehileng e senya thaere ya
505_0103 e dumelletswe ho ka eketsa
505_0105 le ho phuthollwa ka bo
505_0107 o ne a ikete ho
505_0109 ba tsamaella ho ya boitshwarong
505_0110 ne a teane le ditshita
505_0111 public international law
505_0112 international criminal court
505_0113 nyamela ho ba ntidi ha
505_0114 hee ke re o nkgitlile
505_0117 united states coast
505_0121 dipuo ho phatlalatsa le ho
505_0123 israeli prime minister
505_0125 ka dinkgo ho ya sedibeng
505_0126 sa rena le ho rena
505_0130 ke yang ke ne ke
505_0131 le kwae ke motswako wa
505_0132 bofentefente ha ba sekhweshemetsa ba
505_0133 a le mahlomoleng a ho
505_0135 eo ho bafuputsi ba ikgethileng
505_0137 o ne a mo susumelletsa
505_0139 le ho fepela basebedisi ba
505_0141 ho ba le dvt ba
505_0142 o shobile a o entsemotloutlwana
505_0143 le sireletswe le ho notlellwa
505_0144 ka hodimo ha ho tshwauwa
505_0148 boitjaro ho tshepahala ha botsamaisi
505_0151 ho nyaroha e e bo
505_0154 e pakuweng ho otsjet ejiwe
505_0157 central african republic
505_0161 eo a qetileng matsatsitsatsi a
505_0162 ho tu ke sitwa ho
505_0166 ha o ne o re
505_0169 o se a tsohella ha
505_0174 digital signal processing
505_0177 le e qhwaelwang sefubeng kgau
505_0178 ha o a dumellwa ho
505_0179 memorandamo le articles of association
505_0184 ho shatilefensetereng ha re tswaa
505_0185 sa fase ntja eo ya
505_0187 pedi borarong ya mebuso eo
505_0189 di ka nyoloha ha e
505_0191 ya ill e na le
505_0192 e thehilweng bodumeding le dihlopha
505_0193 ya referense eo o e
505_0194 ho re ba re kwetletse
505_0195 ho ya bosoleng ho ya
505_0196 deedsweb ka ha ho na
505_0197 ho ka iteangwang le ba
505_0198 ba re ke ho qetello
505_0204 na ntwa e ka fetelletsang
505_0206 ka ho ya ka minerale
505_0211 recent common ancestor
505_0215 nehawu le psa e le
505_0218 award winning authors
505_0220 a ka masakaneng a ngolwe
505_0222 treaty organization nato
505_0224 medicine price list mpl le
505_0227 ya mahaeng le maphelo a
505_0228 ya pa role ya ho
505_0230 world trade organization
505_0231 sethetsabadisana ha ho bolelwa banana
505_0233 e monyenyaneyena o ne a
505_0238 k h r mapenshenara le
505_0242 ka nqeng ya ho kwetelwa
505_0245 a mmatle a mo tlise
505_0246 o ne a sa robale
505_0248 mthethwa o ne a sa
505_0249 cup winners cup
505_0250 ha o sa re natsa
505_0254 o ye a be le
505_0255 mo re qa kgetlo la
505_0258 sa sebetseng iteanye le ba
505_0259 royal australian navy
505_0261 ba arohana mmileng o fetang
505_0265 bohloko ka ho fetisisa ke
505_0268 ha se mara ha se
505_0269 ya hatelletsweng a se a
505_0271 my nou te doen staan
505_0272 a veke ho sa sejetswe
505_0273 ho natefelwa ke dingolwa e
505_0274 e so arabelwe ka ho
505_0275 joint initiative on priority skills
505_0276 e a amoheleha ya ho
505_0277 ha o hlajwe ke dihlong
505_0280 tshwaetswa ke hiv le aids
505_0281 mohloding le ha e le
505_0282 ka nate e sa tiyang
505_0283 r j r masiea e
505_0287 le ha e le lesobanyana
505_0288 rejisetara le sehalo di sebedisitswe
505_0289 president theodore roosevelt
505_0290 a sa tahwa o ne
505_0292 ho re na e be
505_0293 balekane ba o r tambo
505_0294 kenang toropong e ne e
505_0295 mathakang ba rongwa ba hlatswakang
505_0297 dithupello le ho tlatsetsa ditataisong
505_0299 ha ho ka ke ha
505_0301 a sa tsebenthoeo a e
505_0307 a ho kholomo a le
505_0308 ha o le manganganyanatjena ke
505_0310 british east india
505_0311 a ho qeka le ho
505_0315 electron degeneracy pressure
505_0324 rugby union team
505_0328 ke tshepo ho aubuti thabang
505_0331 re a thaba ha ho
505_0335 o ahlame o mo tonetse
505_0337 ha a ka a arabela
505_0339 nbotsa ho re na ke
505_0342 tswelapele ho tobana le dipephetso
505_0344 maholo a ditsu mahetla le
505_0346 internet service provider
505_0349 la poraevete ke na dipuisanong
505_0354 dikoduwa le matsholo a ho
505_0357 ha ho ne ho itswe
505_0359 hule pay as you earn
505_0362 b le ho ya c
505_0368 ke ne ke re ho
505_0373 memorial park cemetery
505_0374 botoro le tjhisi mabejana difeme
505_0375 e ne e le bosiu
505_0379 intelsat nonsignatory user
505_0382 le lefubedu t w d
505_0387 o re ntaramane ee ya
505_0389 ra o tlohela o sa
505_0390 wa tsoseletso ya boitshwaro o
505_0393 ya cashier e be o
505_0395 e le sephoko a kgelekenya
505_0397 le ho se hlomphehe ha
505_0398 roman catholic priest
505_0399 failed verification date
505_0400 ditoloko le ho theheng ditataiso
505_0402 la nteka la nkenya ditabeng
505_0406 canadian pacific railway
505_0410 ho hlatswa ditholwana le meroho
505_0412 alexander graham bell
505_0413 e sa otlolohang polokehong ya
505_0414 v v mmapelepele e ne
505_0415 theotsweng ke moadimi le ho
505_0417 polish lithuanian commonwealth
505_0424 mamelang ithuteng ho ithaopola ho
505_0425 ka ke se ke le
505_0426 le ho ba yuropa le
505_0429 natural history museum
505_0430 amino acid sequence
505_0431 tantetswe ka mabota a malelele
505_0432 be a se a qwaketsana
505_0433 o moseho mawatle mmekgaitsedi ya
505_0437 kutlo e bakilweng ke lerata
505_0443 eo o e utlwisisang o
505_0453 wa karaburetso o fuperweng meleng
505_0455 san pedro sula
505_0457 a mo jajabetsa kabohale a
505_0459 o se ke wa se
505_0460 elite group included
505_0464 gross state product
505_0465 le phapanyetsano ya lesedi ho
505_0467 re ne re qala ho
505_0471 german democratic republic
505_0472 wa ho tebisa le ho
505_0474 le kokwanahloko ya ya kholera
505_0475 la department of environmental affairs
505_0478 a le leqenyana ka bokgutshwanyane
505_0485 marangrang a kgokano le tshebedisano
505_0486 ho phumula le ho bentsha
505_0489 o ie thabong o a
505_0490 social democratic parties
505_0492 mo rekele masela le tshwele
505_0493 ho teko ho o tl
505_0498 van der waals
505_0507 opereitara ya seteishene le d
505_0508 popeho ya ditemana e nepahetse
505_0509 community based natural resource management
505_0511 second vatican council
505_0513 orange free state
505_0514 o e fuweng ho tshwaya
505_0515 pheleu v o ne a
505_0517 eo ho ka kgelohwang ho
505_0520 le ha di sa utlwisisehe
505_0521 british royal navy
505_0522 ha o ka tlohella ho
505_0524 di phahamiswe le ho ntshetswa
505_0525 e ka letlwepe la masumuathebotsho
505_0526 se na le sehlotshwana kappa
505_0527 ha bo yo ha ho
505_0528 bo weso ka ho ja
505_0530 e lohothwang temaneng ya i
505_0531 second boer war
505_0534 ne di mathile mantswenga hlahlalebajwadi
505_0535 ya mmuni ya ho bokelletsa
505_0538 phupung ka ha o ne
505_0540 mosi o ka kubellang ho
505_0541 poere ya kheri matswai a
505_0542 a kgolwao potile le ha
505_0543 wa ilo wela matjoing kwana
505_0547 king james version
505_0548 ha ho na le ho
505_0554 ba ratang papadi ya bolo
505_0557 following table shows
505_0558 boston red sox
505_0562 ha ho se ho ngangisanwe
505_0563 ka a tadimang e le
505_0566 qojwa ke ho re a
505_0567 ke re re le bolelletse
505_0570 ho ya ka tshisinyo ho
505_0571 eknisheneng le ha e be
505_0573 coptic orthodox church
505_0576 vene ho ne ho le
505_0578 ke di phehileng ha a
505_0583 metsebetsi o ne o ka
505_0584 thato ya tshwene terene e
505_0585 tayo ho ya ka melaotheo
505_0587 designated service provider dsp dsp
505_0590 o ne a tlohile matatilele
505_0592 ne ke thothomela ke tshohile
505_0595 ho se ho fetile beke
506_0001 institjhuteng dikhampaning dikoporasing le baleming
506_0002 states postal service
506_0003 ja ha o na ho
506_0004 ho a atleha ho fihlella
506_0006 ho faswa e bo ba
506_0007 kofi peparemente le tjhokolete di
506_0010 ditsotsi ba ne ba le
506_0011 a betilwe a bolailwe a
506_0012 a kgannang bahwebi ba rekisang
506_0013 ka sereledi a phoqeha ha
506_0014 saenetswe ke baamehi ba konterakeng
506_0015 se na mosola eke ho
506_0016 ha tlelaemete ho ka ba
506_0017 ba se etsahang ha se
506_0018 mo kgwatshebetso wa ho to
506_0019 ka seamohedi sa tshisinyeho ya
506_0020 ho kgonahalang ho hlalositswe ka
506_0024 eo ke e nyatsang ke
506_0025 supply chain management
506_0026 american military personnel
506_0027 ba le thulano ya dikgahleho
506_0028 te maak is nie kinder
506_0030 a qholotsang a na le
506_0032 dipampitshaneng ho se ho tsamauwa
506_0034 e re ka ha o
506_0035 ke re o nkgitlile dibete
506_0036 hlanohetswe o hlanohetswe le ke
506_0037 nkabe ke kgaohana a ko
506_0038 ke la ya le kgonwana
506_0039 tjhankaneng ke ha molebedi a
506_0040 mokopi eo ha ho hlokehe
506_0042 tsetsela ke matetetso haufi le
506_0043 e bolokehileng ya ralewa le
506_0044 socialist federal republic
506_0045 e le e tlokomang ekgaphatsehang
506_0046 a o memele ho kenela
506_0047 ya roma ha mafefowane ke
506_0049 le ho bakang ho kgathatseha
506_0052 james clerk maxwell
506_0054 ya masetso e ikarolang ho
506_0055 le ha o ka ba
506_0056 initiative on priority skills acquisition
506_0057 ba lekalala fet re tshepahore
506_0058 tamiflu e ke ke ya
506_0059 ya matshediso re se re
506_0060 phousetara e shebehe e le
506_0062 dikobo le ho mo busetsa
506_0064 human development index
506_0065 pope benedict
506_0070 ha o a lokela ho
506_0074 pusat statistik provisionally
506_0075 setereka sa maseterata wa pretoria
506_0079 e ne e le sephankgahadi
506_0085 o so ka o fetolelwa
506_0086 north atlantic ocean
506_0088 di re ke sonasesosa sa
506_0089 final resting place
506_0090 ba ke re o nkgumamele
506_0091 a le d e le
506_0093 current account deficit
506_0095 diteboho ho metswalle le bomphato
506_0096 tsepamisa maikutlo haholo mopeletong le
506_0098 e se e tshwere o
506_0099 ne e le moetlo o
506_0101 ka beile le ya ho
506_0106 matjhabeng e ye e be
506_0110 a ratane mmebadisana ba ne
506_0111 nyaya la koloba ditletlebo di
506_0112 ha e le ka sekotwana
506_0114 lkhansele ya aforikaborwa ya diporofeshene
506_0115 peo eo a e jetseng
506_0119 fihle matsohong a eo le
506_0120 soviet socialist republic
506_0123 ha o sa itlhokomele o
506_0124 a radieishene yuraniamo le thoriamo
506_0125 new york stock
506_0127 ya ka ngodiswang e le
506_0130 a ka bapiswang le a
506_0131 dumellang baabi ba batjha ba
506_0134 mmadimpho siko ke re ho
506_0137 ya ba ya saenelwa ke
506_0138 a o hlwang setha o
506_0139 zermelo fraenkel set
506_0142 sa ngodisang ha ba a
506_0144 ba e tjhaelwe monwang ke
506_0148 ye di tlaleheng ho ya
506_0149 ba marena a engelane ditsebengho
506_0150 ho phethahala ho ya ka
506_0152 modern operating systems
506_0155 ne e na le ditempe
506_0159 mohau a nanabela lebokoso le
506_0160 la nkenya ditabeng bana ba
506_0163 condensed matter physics
506_0164 leba mophatong le ho bolotswa
506_0167 le dibohodi di kgothaletswa ho
506_0170 o se o lahlehelwa ke
506_0171 ba tshwasehe kutlwisisong e mopatisane
506_0172 be o itatola bosehla ha
506_0174 be a se a e
506_0175 ba rutwe le ho rupelwa
506_0176 khamphaneng ya marematlou holdings ba
506_0177 a se ke a ho
506_0179 early middle ages
506_0181 o ka itahlelang lemeneng la
506_0182 d ho ikopanya le difedereishene
506_0183 ne ba itjella bolokwe ba
506_0184 ku tlwisiso e kgabane ya
506_0185 demokerasing e kgonang ho ipeha
506_0194 e le le etelletseng tlhaselo
506_0195 moelelo sekaseka le ho hlalosa
506_0198 states presidential candidates
506_0204 lofe a ka hlolehang ho
506_0205 paleng ee o ka re
506_0207 hard disk drives
506_0208 le leamanyi o be o
506_0210 e le wa semanyamanyane o
506_0211 ho se ho le tjena
506_0212 union member states
506_0213 java virtual machine
506_0215 ho thuswa ho netefatsa ntlafatso
506_0216 ba le utswe ba le
506_0217 eo o ka e tsamaisang
506_0218 indian national congress
506_0220 seo ke lekang ho se
506_0221 e tswalang ho foforeha ha
506_0222 le lekgetho le o phumaneho
506_0223 dikgamelwana manamane a bokollela bomma
506_0224 lebellwa ka ha e ne
506_0225 ke ya ka santhao ke
506_0226 di ka o hapisa moqhaka
506_0227 tjhefu dijong le ha ho
506_0229 ikemisetse ho reupella le ho
506_0231 baromuwa ba ncop ba ka
506_0233 a mamel wa le ho
506_0234 grammy award winners
506_0238 tlhokomeloi ya boalosi lehaeng la
506_0239 ya ka le ka tlasa
506_0240 a itjhebetse mejo lemmethe wa
506_0242 loreal age perfect ke ditlolo
506_0243 bukeng ya ac jordan e
506_0244 ya thitelo ha mantshele motaung
506_0245 eo ka ho tshelwa ka
506_0247 ba na le lebenkele le
506_0249 ho ba la tahlehelo ya
506_0251 o re ke dikwata dibusenga
506_0252 married couples living
506_0253 ho fokollwa ke boitswaro ho
506_0258 ne e fupere le ho
506_0260 internal combustion engines
506_0262 national science foundation
506_0265 ba le nate boltong e
506_0269 ya ho theolelwa le ho
506_0270 human rights activists
506_0275 moscow state university
506_0277 di ne di ke ke
506_0280 ho thujwa ho ba dikotwana
506_0282 soma ho mo qosa le
506_0284 a le holena la meutlwa
506_0285 ba leloko le metswalle ho
506_0286 ya mmampholane ya boiphetetso e
506_0288 e kalo ka r e
506_0289 valence bond theory
506_0290 le lequlwana la dinokwane le
506_0291 poello ha o beeleditse ho
506_0293 ho ya ka dipolotiki basebedisani
506_0299 ho ba bahlopholli ba peo
506_0301 e se be eo mmate
506_0303 le ha e le se
506_0304 ke bosotho nthwese kola sa
506_0308 baobab baobab or adonsonia digitata
506_0312 ho lefela ba porofeshene ya
506_0314 castel sant angelo
506_0316 beleha le ho adoptha ho
506_0318 la tiiso ka e meile
506_0321 itebohela ha ke sa ka
506_0325 qolla leakaretsi o be o
506_0329 se qaqolohane ha se a
506_0332 elected prime minister
506_0334 medieval islamic world
506_0335 ho nahana le ho amohela
506_0338 ho itlhahisa ka kutlwelobohloko ho
506_0339 setefikeiti sa boingodiso se ntshwa
506_0340 yane ya mahadi eo e
506_0341 e tswang ho nac ho
506_0342 ba ka e ka sebedisetswa
506_0344 sa kgotsofalang la marenana le
506_0345 ha o ka wa hlala
506_0347 a shwa ke a ikepela
506_0348 ho nyahama ho ka bakwang
506_0353 ya phano e behuweng e
506_0354 le yena o ne a
506_0357 e ka makotikoting le e
506_0358 chinese new year
506_0361 ha e hate ka maro
506_0364 ba hatellwe ka ho tingwa
506_0365 ya mosuwehlooho ho ya utlwahantle
506_0367 e sa le a nyalwa
506_0368 american film actors
506_0370 wa emalahleni mof malatjie o
506_0375 jwalojwalo le ha ho le
506_0378 le bojuta le bokreste re
506_0379 le mekgatlong ya baserbetsi ho
506_0380 bapiswe le tshupamolato eo ho
506_0382 different ethnic groups
506_0384 le ha ho nnile ha
506_0385 a lora a haola meruemetala
506_0391 e ne e bapalwa ke
506_0396 a ho tshwaetsa ho phatlalletseng
506_0397 ba ath party
506_0400 o tehele mohlalanyana o mosesane
506_0404 green coffee beans
506_0406 la diphuputso la temo le
506_0407 american science fiction
506_0409 ho kgabisamola oo ka ho
506_0412 lekotsi e kieng ya etshahala
506_0413 world s largest
506_0416 wakgahlwa ke lefiso la metsaneng
506_0417 dihlongwapele mantsweng ao o a
506_0419 e le homeritshana e meputswa
506_0421 mosotho o ye a re
506_0422 a ka lesaka ha ke
506_0423 ha o ka kgethelwa ho
506_0424 wa ho tsebisa baahi ka
506_0426 utswe ha ba qale leshano
506_0427 e qadikaneng ya ho kgaketsa
506_0428 ya diahi ho nhbrc le
506_0429 difounu le difekse le ho
506_0435 ntlwanatshwana ho so be le
506_0436 ka yonaka lebakala ho se
506_0440 le maruo a terasete ya
506_0442 e ikitlaleditse ho o fa
506_0444 re lehola ha le jalwe
506_0447 ya basotho ho ne ho
506_0448 mahlabisa dihlong e le ka
506_0449 ba sa tswafe ho e
506_0451 studies and journalism ekasitana le
506_0452 di entswe ho na di
506_0453 ya nyewe se sa thuswe
506_0456 qha eo re ka mo
506_0457 pro football hall
506_0458 le maqhubu a radieishene sepakapakeng
506_0459 later middle ages
506_0460 ba itlhophereng ba na le
506_0463 lemang di a tjheha di
506_0465 be leholo o se o
506_0467 a ke ke a qobellwa
506_0468 ya tleleime ka sekgahla sa
506_0469 di ne di phatsimakaka ho
506_0470 yuniti ya bokenadipakeng ya tonakgolo
506_0471 e bontshitse bophahamo bo sa
506_0472 verifiable source proving
506_0473 parliamentary representative democratic
506_0478 mohlankana ba nyamella ka thotaneng
506_0479 le phosphorus e ka ba
506_0481 ka mahlong motsotso o molelele
506_0483 le ho se tsejwe ha
506_0485 o atlehile ho kgina tshwaetso
506_0487 hehehe ho re ho na
506_0488 se busetseng ho nkwa ha
506_0491 ke nyatsana le ho ikwahlahela
506_0494 ho hlometswe ho tlatlaptjwa ha
506_0496 re hotse tlasayonao se ipateka
506_0501 ho demokrasi e amohelang ho
506_0502 ha sheri a dumetse ho
506_0504 ha o tshepahale o le
506_0505 bulele ha ho se ya
506_0506 ne o ka mo qenehela
506_0509 na ho ba le boitelo
506_0510 ka ho qholotswa le ho
506_0511 ya thutapuo ka bokgoni bo
506_0512 united states government
506_0513 panado ya mokedikedi e tsebahala
506_0514 mothusi wa sadc eo e
506_0515 ho division liquor products stellenbosch
506_0516 boya ho ne ho tletse
506_0518 keleng qetelong le dite maneng
506_0520 ya mokganni wa borutehi bo
506_0522 holy roman empire
506_0523 a mo shapileng hamper ka
506_0525 bo omeletseng bo meqilweng ka
506_0527 ho nthusa ha ke le
506_0528 mofelehetse ka ho re ha
506_0532 ho ka boelang ha kenyeletswa
506_0534 natural number n
506_0539 best original screenplay
506_0541 ka ha a mo tlwaeditse
506_0543 hahang ha a hlokofetse a
506_0545 mehau ha re a bokolle
506_0547 dikgohlopo o ne a na
506_0551 efela e le ya tlotseng
506_0553 ho tsitsa bokahareng ba ka
506_0555 ho se mo sune ha
506_0556 di buisane le fhr ka
506_0557 se e le ka makgetlo
506_0558 verify credibility dater
506_0559 e le diritsa ba kgaohile
506_0560 rejisetara le sephetho di loketse
506_0561 v ha a ne a
506_0562 e tshelwang matamong a ho
506_0563 ha e a nkgotsofatsa hohang
506_0564 otlile a ba a mo
506_0565 dubious date march
506_0566 ke ha a rohakwa ka
506_0567 e hlwailweng ha ba ha
506_0568 ke ho methwa ha mafura
506_0569 ba sebedisang matsoho ho buwa
506_0570 e ka ha ho a
506_0571 ne sa e romele ha
506_0572 phokotso phanyeho le kgaotso ya
506_0574 e kotjwang ke rekoto ya
506_0575 a mmatla ka ha a
506_0576 army air corps
506_0577 letlalepepilwe o ithorisa o re
506_0578 qheku lela le dutsengpelabona le
506_0579 se a hatile molelema o
506_0583 ho se tlhokahalo ya ho
506_0584 ho roka ke ho bokotsa
506_0585 le na le vitamin d
506_0587 kemangau a e hlepholaka ka
506_0588 ha ke re o ne
506_0589 continental united states
506_0590 blood pressure hypertension le asthma
506_0591 a ithorise ka lefeela la
506_0593 ya thothokiso le ya sengolwa
506_0596 game boy advance
506_0597 p na ke lefa ka
506_0598 a bonahala ha ho le
506_0602 kgodise ha di tshehe tswe
506_0603 o a ntjodietsa ha ke
506_0604 se di sutelwa ka mokotleng
506_0605 american voice actors
506_0608 yahae e talana e pepileng
506_0611 a ithaburanya ka ha a
506_0613 free market economy
506_0614 hlileng e o hwayahwayang ha
506_0615 eo e ipatlelalenaka la mophatong
506_0616 radiopane a ka be a
506_0617 le ha a le ka
506_0619 kantorong eo molefi a dutseng
506_0620 ba ne ba ka hapa
506_0622 phokojwe ha e tshela moedi
506_0624 sa balang le ha ho
506_0626 vasco da gama
506_0627 se lokelwa ho ithutwa sethatong
506_0629 ha mosifa o honyela o
506_0630 gauteng kamora leeto la balfour
506_0631 holane lebelo re sa ikgapele
506_0632 ne ke re na ha
506_0634 thabeng le ha ho le
506_0635 bophihlelo ba boiketsetso ho phedisana
506_0636 amohelwe ke registration committee of
506_0637 ho bokellwa le ho hlophollwa
506_0638 manyala a entsweng ka boomo
506_0641 boi ba tjhetjhe letsholong ba
506_0642 ho be le makalana mabatoweng
506_0643 ba kotula lehlaka esitana le
506_0644 ka mmaletswai o ne a
506_0645 ke hierarchy of needs ya
506_0646 l cuin abbr
506_0647 san francisco bay
506_0649 thellisane phupekalefe di ne di
506_0650 diphoofolo di na le ditokelo
506_0653 ke tshohe moru o se
506_0655 a di shebe e be
506_0656 ho latele tumediso monghadi e
506_0657 ya senyesemane le ya afrikanse
506_0658 lejwe hono ha ho mo
506_0659 tshetso ya setekgeniki le ya
506_0660 ya ditshoso ya ditshokelo le
506_0662 molora wa setopo se tjhesitsweng
506_0663 distinguished service medal
506_0664 amohela temoho ya tshepahalo e
506_0665 ka moya o motle ho
506_0666 ba ha bo matsohong a
506_0667 wa sekete ya thelevishene e
506_0668 o se o phethetswe hajwale
506_0669 wa setereke o na le
506_0671 ke tabatabelo ya ka ho
506_0672 letlalo le bohehe le le
506_0673 theohela ha e le ho
506_0674 di se di le mafekefeke
506_0675 representative democratic republic
506_0676 e sa ntsaneng e thuthuha
506_0679 e le tshweu ha a
506_0680 ba sa kgathatseng ie ba
506_0684 nations security council
506_0686 mtv video music
506_0688 e sa le ka meso
506_0689 ya di deeds e ya
506_0690 bulehileng ya sa keneng dintweng
506_0691 e le maotomane maemomg a
506_0692 ha a se a kgotsofetse
506_0693 molwantshi ho ka ba le
506_0694 ba rerile ho o etsetsa
506_0695 a lebane le pheletso ya
506_0696 world wildlife fund
506_0698 ho sa thabelwe e be
506_0700 hobane e ne e se
506_0701 eo a qalang ho kopana
506_0702 ho rapalla le ho lopalla
506_0703 ba ka ba se ba
506_0704 ke oka ditlhabela ha o
506_0705 na mariki le mariki a
506_0706 the wrath of the ancestors
506_0707 ka lehlohonolo la moteaphala o
506_0709 programming languages created
506_0710 ya bodulo le ya mosebetsing
506_0711 ja ha a ne a
506_0712 ka tonnoro e bulehelang ka
506_0713 air force reserve
506_0714 keboitshepo ba ipone ba se
506_0716 sir francis drake
506_0718 na le akhaonte ya banka
506_0719 kgosokgoso o ne a shapilwe
506_0721 le baetapale ba basebedisani ba
506_0724 ne di ye di kgannele
506_0726 ha a na le ba
506_0727 ya sa batleng ho jarelwa
506_0728 se je hnatle ho kenyeletsang
506_0729 le e bonaletsang ha o
506_0731 historia regum britanniae
506_0732 sa nyenyefatswa a sa hlomphiwe
506_0733 le mosehlana a sotse ha
506_0734 african national congress
506_0735 ho na le batho ba
506_0736 ratelereko o ne a re
506_0737 a bontshitseboikemisetso bo matlabaho mo
506_0738 tsietsi ba ne ba aparetswe
506_0739 ho patent journal e phatlalatswang
506_0740 ka haramotse wa thekong mmathabo
506_0741 old church slavonic
506_0742 hlahella kharikhulamong le leanong la
506_0743 phethetswe hajwale re ikopantse le
506_0744 ya ho ya tsoma marabe
506_0745 ka ha ho hlokwa ke
506_0747 le ho hlompha ka sewelo
506_0748 se se se o natefela
506_0750 di a phethiswa ho be
506_0751 ne o a ithutelang ha
506_0753 e tataiswa ke dipheo le
506_0754 ka boithabiso ka nqa e
506_0755 a ne a tjheswa mehlape
506_0756 ka ha di le ka
506_0757 re be le tjhebelo ya
506_0758 kahona o mmamedisise ke o
506_0759 setsho e bonesa ka kganya
506_0760 sa id sa mmala o
506_0761 e kang diteko dihlahlobo diporojeke
506_0762 ne ke sa bolokeha le
506_0763 pheme ho se be le
506_0764 batshehetsi ba a bina ba
506_0765 mafatsheng a bokatoliki kereke e
506_0766 e le ho hlakola dikadimo
506_0767 a batle ho utlwa letho
506_0768 e sa namme eo ke
506_0769 bo ke ke ba ba
506_0770 a tsamaelana le boiphihlelo ba
506_0771 ba tjhatsi ba a di
506_0772 ha ho arabelwa pampiri ya
506_0773 hlweke ho se be le
506_0774 united states began
506_0776 o kgatisoleng e ka latolwa
506_0777 ba a baketsweng ke ho
506_0778 federal communications commission
506_0779 australian rules football
506_0780 mo lebelong la ho neelana
506_0781 e ikgabetse e kgabile kang
506_0782 o ne a re ho
506_0783 a se a sa ya
507_0001 e iswe ho ba baholo
507_0004 di ne di ye di
507_0009 afidaviti a ka ya ho
507_0010 e se e le ho
507_0021 le nkgolwe ha ke re
507_0026 se na hitara ya kgase
507_0027 mo pharehela moratha le diretlo
507_0029 special administrative region
507_0039 tshwarehile ha o le manganganyanatjena
507_0040 ho se ho bile ho
507_0041 fact date october
507_0044 chinese martial arts
507_0045 ya moqoqo ho karolo ya
507_0047 ha ba se ba qetile
507_0048 ha a ka a ahlolelwa
507_0060 ba ye ba re ha
507_0061 ecstasy lsd le ka boheroin
507_0062 re ya ka nnqeng e
507_0063 ka metswako e fapafapaneng ya
507_0066 letlole la inshorense ya ho
507_0067 television series debuts
507_0068 bafta winners people
507_0069 ya ho fa medimo dimpho
507_0070 ke na le kgwaonyana ka
507_0074 a mokokotlo neural tube defects
507_0077 a ye boyabatho eka makatikati
507_0084 o motsho le o mosweu
507_0085 e jehang e le ka
507_0088 policy on financial awards pfa
507_0089 o dihetse tekete he mohaeso
507_0091 ha e le letahwa o
507_0095 civil liberties union
507_0098 ya netweke ya prime cure
507_0103 r ho se be le
507_0104 ha e shwe ha e
507_0105 tsebisahala ka ho re ke
507_0106 great northern war
507_0107 wa kobolelwa ho iketla ho
507_0108 average household size
507_0115 big bang theory
507_0116 le moorosi ba ne ba
507_0117 se a ne a ye
507_0122 eastern orthodox christians
507_0124 re o se ne a
507_0129 reverse polish notation
507_0130 ya ditho ya inthanete member
507_0136 cipro ha o se o
507_0137 riphaboliki le ha ho le
507_0142 ha a tloswe ha a
507_0143 wa bolelele bo boletsweng ka
507_0146 real gdp growth
507_0147 ha moqosuwa a hloleha ho
507_0148 mmokelletsi ya lefshwang khomoshene ya
507_0149 ke se ke itshwetse mokgubu
507_0152 ji go roc sichi haj
507_0157 bo tsanyaola modidietsane bare mmopi
507_0158 le utswitsweng jj le b
507_0159 se mo sunya sephephetjhana se
507_0167 di sa fetohe bophelong ba
507_0173 le ha ke re ke
507_0174 history important documentation
507_0178 ha ba tshwaraneng le ho
507_0181 a sa thekeseleng a ho
507_0188 ba kgethile disakarete le dithutswana
507_0190 mo eletsa ka ho re
507_0192 principal ideal domain
507_0193 hlophisitswe ka ho ya ka
507_0194 b a se ke a
507_0195 air force bases
507_0199 bontshwa ka ho kengwa ka
507_0202 office administration ka ngollano ha
507_0205 ya sephiring ya ka le
507_0206 bo boletsweng leqepheng la ditaelo
507_0209 major political parties
507_0210 ha e ya ka ya
507_0211 ka ho ya ka tshitshinyo
507_0212 e le nonyana ya ntlwanatshwana
507_0215 ha ho so etsuwe o
507_0216 sa ho ngodisa khansele ya
507_0218 be e le tharollo ya
507_0221 khanselara ya woto e ka
507_0225 international red cross
507_0226 ka thota ha ba tlolela
507_0229 se nehuweng ho sa tsotellwe
507_0233 exclusive economic zone
507_0236 v ka ho re le
507_0240 le ho e bapadisa ka
507_0245 south american countries
507_0250 mmaletsatsi haesale e le mmaletsatsi
507_0255 ho bentsha tapeiti o a
507_0256 ho hlaloswang le ho buisanwa
507_0257 ya ho bulela bongatane le
507_0258 belaellwang a utswitse diruuwa jj
507_0259 elections took place
507_0263 ba ho ngodisa bokudi ba
507_0277 le g thuo le ditabatabelo
507_0278 oo e seng wa phahello
507_0279 ba ne ba tlwahetse ho
507_0280 le ho hasanngwa ha dikhondomo
507_0282 ya mmasepala le dikwere dipaka
507_0283 na ha ke re ho
507_0284 ha re ka ra e
507_0287 ho eo o itlwanang le
507_0291 track speed skating
507_0292 eastern bloc countries
507_0293 animated television series
507_0296 fact date january
507_0297 ba sa ikamahanyeng le bcea
507_0298 lepetjo ke mobolelo o mokgutshwane
507_0301 eastern orthodox church
507_0304 e ba o pepeta senotlolo
507_0306 hanwa ha mokgatiso a sa
507_0308 kgweding ya phato mantsiboya ke
507_0309 matle haholoholo ha ho shejwa
507_0310 a e sebedisitseng phehisanong e
507_0312 ba ke re re qhalle
507_0320 ne di mphapanelana di mpakela
507_0323 le ho se hlahiswe hofe
507_0324 bohlahlobi ba semolao ba ditjhankane
507_0326 mrm e ne e le
507_0327 ozone layer protection
507_0328 fact date march
507_0330 e bapatsang le e fepelang
507_0333 e ne e le qohollehile
507_0339 tennweng ke kedibone e mesesane
507_0340 ne e le ya v
507_0342 e metle eo a e
507_0356 high school students
507_0358 united states environmental
507_0359 military coup
507_0362 afe ao ho ikemiseditsweng ho
507_0363 e le afeng moikopedi a
507_0374 political parties established
507_0376 e ne e ka ratwa
507_0379 kelly o ne o na
507_0380 lehano e sa kgoneheng ha
507_0381 re a phahame a ke
507_0385 org wiki wikipedia
507_0391 eo e ne e jellwa
507_0393 maintains diplomatic relations
507_0394 french revolutionary wars
507_0396 science fiction films
507_0398 be o le modudi wa
507_0401 registrar of animal improvement e
507_0402 metal musical groups
507_0407 a boikarabello v e kgothalletsa
507_0410 e kaale ha o se
507_0413 ya mabidi o ka se
507_0416 o ke ke wa keketeha
507_0420 sa thabelwe e be motlotlohadi
507_0421 ke ya thabelang ho rongwa
507_0424 a diranta ke ho re
507_0426 ho hlomathisa dibili le ho
507_0428 ba ya ntshehisa ke le
507_0436 ke tshwanelwang ho o hlwa
507_0437 na o a e phehisa
507_0438 ha a se a hodile
507_0440 ntlha le ha e le
507_0447 aaraba ee ke ne ke
507_0448 e ke be e e
507_0449 to information act ke ho
507_0452 ho itekola le ho itshupa
507_0458 new prime minister
507_0464 se emele ho phatloha ho
507_0468 popular tourist destination
507_0469 humid subtropical climate
507_0472 eo ka ho kgena o
507_0475 ho tsebisa gems mabapi le
507_0476 o qadile ka mathaithai a
507_0477 native american languages
507_0479 ho kgoneha ho be le
507_0480 ho ne ho tsongwa ho
507_0481 leyena o ne a se
507_0485 le hlomphehileng mohatsaleqwetha o nyametse
507_0486 e se e itshetjha e
507_0491 mr t a ba a
507_0492 ho lothanwa ba lothuwang ie
507_0493 ha e le ho totoba
507_0494 relatively small number
507_0496 ho be le ho se
507_0497 ba seafrika bo hlomptjhwe o
507_0501 ha e bonahale ntlafalong ya
507_0503 united states presidential
507_0504 kgwebo e ka thoko ho
507_0507 ke haho se ho ropoha
507_0508 late middle ages
507_0509 diphoso le ho e ntlafatsa
507_0514 ha le re tjhapa le
507_0517 a hwehla ka letsoho ho
507_0518 ispia monnafeela a kwetelwe ke
507_0519 matsholo a ikgethang a temoso
507_0520 le diambulense e ne e
507_0523 ho inkela diqeto ha ba
507_0529 ha ho na le menyenyetsi
507_0533 e hopotseng e sa wele
507_0534 ba ne ba sebaqaleletse ho
507_0536 new york mets
507_0538 papua new guinea
507_0539 ho ka bakela ho feroha
507_0541 dar es salaam
507_0542 e ne e se moitlami
507_0545 sa nwajwala tlhase ya pososelo
507_0552 e le sekgomathiso e se
507_0555 e tshabe ho ba tlohedisa
507_0557 ho sebedisetswa ho lekanyetsa diphetho
507_0559 le diphetoho ho ya ka
507_0563 ha ho kgoneho e ka
507_0564 ao o a bokelletseng a
507_0565 bothile dinonyana di ipatile dirobeng
507_0566 achievement award winners
507_0573 ka kakaretso le c ho
507_0574 american sign language
507_0578 sa ye ngakeng o e
507_0582 o ke ke be wa
507_0586 o mo phehletse sefuba sa
507_0587 ya ho tsamaela ho lebeng
507_0590 guano islands act
507_0592 tshwela tb e ipatileng e
507_0595 ba saps criminal record centre
507_0596 e a ko hlo ntjwetse
507_0599 united states district
507_0600 wa kelly o ne o
507_0602 different ethnic groups
507_0604 le ha ho nnile ha
507_0605 a lora a haola meruemetala
507_0607 roka le ke motjheso walehlabula
507_0610 eo o ne a lahlile
507_0614 a ke o re phetele
507_0615 di ne di sa rerwa
507_0617 ba ath party
507_0619 british prime minister
507_0621 ha e sa le tjhatsi
507_0623 world health organization
507_0624 green coffee beans
507_0627 american science fiction
507_0629 ho kgabisamola oo ka ho
507_0632 lekotsi e kieng ya etshahala
507_0633 world s largest
507_0638 mmankepe bo totiswa ke ho
507_0639 e le homeritshana e meputswa
507_0641 mosotho o ye a re
507_0643 ha o ka kgethelwa ho
507_0646 utswe ha ba qale leshano
507_0648 ya diahi ho nhbrc le
507_0649 difounu le difekse le ho
507_0650 matlotlo le ho ba ditulong
507_0656 ka yonaka lebakala ho se
507_0659 be a qetelle a sa
507_0660 le maruo a terasete ya
507_0662 e ikitlaleditse ho o fa
507_0664 re lehola ha le jalwe
507_0666 ho a tlama ho tlatsa
507_0667 ya basotho ho ne ho
507_0669 ba sa tswafe ho e
507_0670 la nale a ke o
507_0671 studies and journalism ekasitana le
507_0672 di entswe ho na di
507_0674 hlano a le modudi wa
507_0675 ka mekoko ha reshebana e
507_0676 qha eo re ka mo
507_0677 pro football hall
